nitial State for  aa_0_C3v_tdA_sc3k2cl_d0lda.out_etbird
   1.00000000000000
   17.5612749176088023  0.0000000000000000    0.0000000000000000
   0.0000000000000000   17.5612749176088023   0.0000000000000000
   0.0000000000000000   0.0000000000000000    17.5612749176088023
   In   P
   107  109
Direct
0.6595804134	0.6595804134	0.5002517582
0.6595804134	0.5002517582	0.6595804134
0.5002517582	0.6595804134	0.6595804134
0.6688299225	0.5017634903	0.3341542752
0.6688299225	0.3341542752	0.5017634903
0.5017634903	0.6688299225	0.3341542752
0.5017634903	0.3341542752	0.6688299225
0.3341542752	0.6688299225	0.5017634903
0.3341542752	0.5017634903	0.6688299225
0.5016896302	0.3360341234	0.3360341234
0.3360341234	0.5016896302	0.3360341234
0.3360341234	0.3360341234	0.5016896302
0.8338216398	0.4999868246	0.4999868246
0.4999868246	0.8338216398	0.4999868246
0.4999868246	0.4999868246	0.8338216398
0.5004395202	0.5004395202	0.1672635417
0.5004395202	0.1672635417	0.5004395202
0.1672635417	0.5004395202	0.5004395202
0.8315240707	0.6660285059	0.6660285059
0.6660285059	0.8315240707	0.6660285059
0.6660285059	0.6660285059	0.8315240707
0.8338442987	0.6674532061	0.3334330063
0.6674532061	0.8338442987	0.3334330063
0.8338442987	0.3334330063	0.6674532061
0.6674532061	0.3334330063	0.8338442987
0.3334330063	0.8338442987	0.6674532061
0.3334330063	0.6674532061	0.8338442987
0.8334017531	0.3334542869	0.3334542869
0.6667841123	0.6667841123	0.1669113577
0.6667841123	0.1669113577	0.6667841123
0.3334542869	0.8334017531	0.3334542869
0.3334542869	0.3334542869	0.8334017531
0.1669113577	0.6667841123	0.6667841123
0.6666569991	0.3332673362	0.1666061448
0.6666569991	0.1666061448	0.3332673362
0.3332673362	0.6666569991	0.1666061448
0.1666061448	0.6666569991	0.3332673362
0.3332673362	0.1666061448	0.6666569991
0.1666061448	0.3332673362	0.6666569991
0.3342980504	0.3342980504	0.1679737559
0.3342980504	0.1679737559	0.3342980504
0.1679737559	0.3342980504	0.3342980504
0.8308872193	0.8308872193	0.5002075077
0.8308872193	0.5002075077	0.8308872193
0.5002075077	0.8308872193	0.8308872193
0.8333390967	0.5000983551	0.1667997826
0.8333390967	0.1667997826	0.5000983551
0.5000983551	0.8333390967	0.1667997826
0.5000983551	0.1667997826	0.8333390967
0.1667997826	0.8333390967	0.5000983551
0.1667997826	0.5000983551	0.8333390967
0.5003228952	0.1673208568	0.1673208568
0.1673208568	0.5003228952	0.1673208568
0.1673208568	0.1673208568	0.5003228952
1.0001350744	0.6666699159	0.5002277422
1.0001350744	0.5002277422	0.6666699159
0.6666699159	1.0001350744	0.5002277422
0.5002277422	1.0001350744	0.6666699159
0.6666699159	0.5002277422	1.0001350744
0.5002277422	0.6666699159	1.0001350744
1.0002523084	0.5001554187	0.3335105326
1.0002523084	0.3335105326	0.5001554187
0.5001554187	1.0002523084	0.3335105326
0.3335105326	1.0002523084	0.5001554187
0.5001554187	0.3335105326	1.0002523084
0.3335105326	0.5001554187	1.0002523084
0.8330656169	0.8330656169	0.8330656169
0.8333986793	0.8333986793	0.1663400243
0.8333986793	0.1663400243	0.8333986793
0.1663400243	0.8333986793	0.8333986793
0.8334869726	0.1667273237	0.1667273237
0.1667273237	0.8334869726	0.1667273237
0.1667273237	0.1667273237	0.8334869726
0.1672131836	0.1672131836	0.1672131836
0.9993642094	0.8329523161	0.6665614679
0.9993642094	0.6665614679	0.8329523161
0.8329523161	0.9993642094	0.6665614679
0.8329523161	0.6665614679	0.9993642094
0.6665614679	0.9993642094	0.8329523161
0.6665614679	0.8329523161	0.9993642094
1.0001806902	0.833750306	0.3335239503
0.833750306	1.0001806902	0.3335239503
1.0001806902	0.3335239503	0.833750306
0.833750306	0.3335239503	1.0001806902
0.9999171309	0.6666695702	0.1665249698
0.3335239503	1.0001806902	0.833750306
0.3335239503	0.833750306	1.0001806902
0.6666695702	0.9999171309	0.1665249698
0.9999171309	0.1665249698	0.6666695702
0.6666695702	0.1665249698	0.9999171309
1.0005829141	0.3335914341	0.1671163993
0.1665249698	0.9999171309	0.6666695702
1.0005829141	0.1671163993	0.3335914341
0.1665249698	0.6666695702	0.9999171309
0.3335914341	1.0005829141	0.1671163993
0.1671163993	1.0005829141	0.3335914341
0.3335914341	0.1671163993	1.0005829141
0.1671163993	0.3335914341	1.0005829141
0.999386081	0.999386081	0.5002614705
0.999386081	0.5002614705	0.999386081
0.5002614705	0.999386081	0.999386081
0.9999300905	0.9999300905	0.8333469113
0.9999300905	0.8333469113	0.9999300905
0.8333469113	0.9999300905	0.9999300905
1.0002200986	1.0002200986	0.1667679141
1.0002200986	0.1667679141	1.0002200986
0.1667679141	1.0002200986	1.0002200986
0.4762825036	0.4762825036	0.4762825036
0.5664365737	0.5664365737	0.5664365737
0.5842187429	0.4213798893	0.4213798893
0.4213798893	0.5842187429	0.4213798893
0.4213798893	0.4213798893	0.5842187429
0.7511005308	0.5844674833	0.4173766329
0.7511005308	0.4173766329	0.5844674833
0.5844674833	0.7511005308	0.4173766329
0.5844674833	0.4173766329	0.7511005308
0.4173766329	0.7511005308	0.5844674833
0.4173766329	0.5844674833	0.7511005308
0.5837257437	0.5837257437	0.250833986
0.5837257437	0.250833986	0.5837257437
0.250833986	0.5837257437	0.5837257437
0.4177386258	0.4177386258	0.2516079686
0.4177386258	0.2516079686	0.4177386258
0.2516079686	0.4177386258	0.4177386258
0.7457801892	0.7457801892	0.5816642592
0.7457801892	0.5816642592	0.7457801892
0.5816642592	0.7457801892	0.7457801892
0.7497483105	0.4165764545	0.2501541676
0.7497483105	0.2501541676	0.4165764545
0.4165764545	0.7497483105	0.2501541676
0.2501541676	0.7497483105	0.4165764545
0.4165764545	0.2501541676	0.7497483105
0.2501541676	0.4165764545	0.7497483105
0.5834153208	0.2511816807	0.2511816807
0.2511816807	0.5834153208	0.2511816807
0.2511816807	0.2511816807	0.5834153208
0.9167294254	0.5834959933	0.5834959933
0.5834959933	0.9167294254	0.5834959933
0.5834959933	0.5834959933	0.9167294254
0.9169312173	0.4166399616	0.4166399616
0.7502562157	0.7502562157	0.2499572145
0.7502562157	0.2499572145	0.7502562157
0.4166399616	0.9169312173	0.4166399616
0.4166399616	0.4166399616	0.9169312173
0.2499572145	0.7502562157	0.7502562157
0.583409244	0.4169572443	0.0836012897
0.4169572443	0.583409244	0.0836012897
0.583409244	0.0836012897	0.4169572443
0.4169572443	0.0836012897	0.583409244
0.0836012897	0.583409244	0.4169572443
0.0836012897	0.4169572443	0.583409244
0.2506577088	0.2506577088	0.2506577088
0.9170217078	0.750293447	0.4169428701
0.750293447	0.9170217078	0.4169428701
0.9170217078	0.4169428701	0.750293447
0.750293447	0.4169428701	0.9170217078
0.4169428701	0.9170217078	0.750293447
0.4169428701	0.750293447	0.9170217078
0.9167225039	0.5834108631	0.2501898093
0.9167225039	0.2501898093	0.5834108631
0.5834108631	0.9167225039	0.2501898093
0.5834108631	0.2501898093	0.9167225039
0.2501898093	0.9167225039	0.5834108631
0.2501898093	0.5834108631	0.9167225039
0.7500526378	0.5834772602	0.08348168
0.5834772602	0.7500526378	0.08348168
0.7500526378	0.08348168	0.5834772602
0.5834772602	0.08348168	0.7500526378
0.08348168	0.7500526378	0.5834772602
0.08348168	0.5834772602	0.7500526378
0.4168934598	0.2505910991	0.0840341319
0.4168934598	0.0840341319	0.2505910991
0.2505910991	0.4168934598	0.0840341319
0.2505910991	0.0840341319	0.4168934598
0.0840341319	0.4168934598	0.2505910991
0.0840341319	0.2505910991	0.4168934598
0.9155941052	0.7493410392	0.7493410392
0.7493410392	0.9155941052	0.7493410392
0.7493410392	0.7493410392	0.9155941052
0.9168679537	0.2501347506	0.2501347506
0.2501347506	0.9168679537	0.2501347506
0.2501347506	0.2501347506	0.9168679537
0.7500949001	0.2500102321	0.0832614141
0.7500949001	0.0832614141	0.2500102321
0.2500102321	0.7500949001	0.0832614141
0.0832614141	0.7500949001	0.2500102321
0.2500102321	0.0832614141	0.7500949001
0.0832614141	0.2500102321	0.7500949001
0.9152456756	0.9152456756	0.5829045729
0.9152456756	0.5829045729	0.9152456756
0.5829045729	0.9152456756	0.9152456756
0.9170179828	0.4167658863	0.0836709236
0.9170179828	0.0836709236	0.4167658863
0.4167658863	0.9170179828	0.0836709236
0.0836709236	0.9170179828	0.4167658863
0.4167658863	0.0836709236	0.9170179828
0.0836709236	0.4167658863	0.9170179828
0.5831714635	0.0833391278	0.0833391278
0.0833391278	0.5831714635	0.0833391278
0.0833391278	0.0833391278	0.5831714635
0.9167652487	0.9167652487	0.2498706501
0.9167652487	0.2498706501	0.9167652487
0.9164814117	0.749819624	0.0829355349
0.2498706501	0.9167652487	0.9167652487
0.749819624	0.9164814117	0.0829355349
0.9164814117	0.0829355349	0.749819624
0.749819624	0.0829355349	0.9164814117
0.0829355349	0.9164814117	0.749819624
0.0829355349	0.749819624	0.9164814117
0.2501250585	0.0836501097	0.0836501097
0.0836501097	0.2501250585	0.0836501097
0.0836501097	0.0836501097	0.2501250585
0.916484693	0.916484693	0.916484693
0.9167417	0.0833348523	0.0833348523
0.0833348523	0.9167417	0.0833348523
0.0833348523	0.0833348523	0.9167417
