nitial State for  aa_0_C3v_tdA_sc3k2cl_d
   1.00000000000000     
    17.5612749176088023    0.0000000000000000    0.0000000000000000
     0.0000000000000000   17.5612749176088023    0.0000000000000000
     0.0000000000000000    0.0000000000000000   17.5612749176088023
   In   P 
   107   109
Direct
  0.6599560729646587  0.6599560729646587  0.5009143469409154
  0.6599560729646587  0.5009143469409154  0.6599560729646587
  0.5009143469409154  0.6599560729646587  0.6599560729646587
  0.6681731368868324  0.5016732895133634  0.3347220858916865
  0.6681731368868324  0.3347220858916865  0.5016732895133634
  0.5016732895133634  0.6681731368868324  0.3347220858916865
  0.5016732895133634  0.3347220858916865  0.6681731368868324
  0.3347220858916865  0.6681731368868324  0.5016732895133634
  0.3347220858916865  0.5016732895133634  0.6681731368868324
  0.5006544664059741  0.3356534246214778  0.3356534246214778
  0.3356534246214778  0.5006544664059741  0.3356534246214778
  0.3356534246214778  0.3356534246214778  0.5006544664059741
  0.8338367971975675  0.4999900220893516  0.4999900220893516
  0.4999900220893516  0.8338367971975675  0.4999900220893516
  0.4999900220893516  0.4999900220893516  0.8338367971975675
  0.5003854652883051  0.5003854652883051  0.1672145640784605
  0.5003854652883051  0.1672145640784605  0.5003854652883051
  0.1672145640784605  0.5003854652883051  0.5003854652883051
  0.8311652272871661  0.6659190411857029  0.6659190411857029
  0.6659190411857029  0.8311652272871661  0.6659190411857029
  0.6659190411857029  0.6659190411857029  0.8311652272871661
  0.8337762474188917  0.6673702338829836  0.3334486789474841
  0.6673702338829836  0.8337762474188917  0.3334486789474841
  0.8337762474188917  0.3334486789474841  0.6673702338829836
  0.6673702338829836  0.3334486789474841  0.8337762474188917
  0.3334486789474841  0.8337762474188917  0.6673702338829836
  0.3334486789474841  0.6673702338829836  0.8337762474188917
  0.8335465742956994  0.3335137863924519  0.3335137863924519
  0.6669148751754812  0.6669148751754812  0.1668494875445032
  0.6669148751754812  0.1668494875445032  0.6669148751754812
  0.3335137863924519  0.8335465742956994  0.3335137863924519
  0.3335137863924519  0.3335137863924519  0.8335465742956994
  0.1668494875445032  0.6669148751754812  0.6669148751754812
  0.6666816489223132  0.3333012196753518  0.1666150839483700
  0.6666816489223132  0.1666150839483700  0.3333012196753518
  0.3333012196753518  0.6666816489223132  0.1666150839483700
  0.1666150839483700  0.6666816489223132  0.3333012196753518
  0.3333012196753518  0.1666150839483700  0.6666816489223132
  0.1666150839483700  0.3333012196753518  0.6666816489223132
  0.3342916102386650  0.3342916102386650  0.1678931998614884
  0.3342916102386650  0.1678931998614884  0.3342916102386650
  0.1678931998614884  0.3342916102386650  0.3342916102386650
  0.8309259812257180  0.8309259812257180  0.5003577721962850
  0.8309259812257180  0.5003577721962850  0.8309259812257180
  0.5003577721962850  0.8309259812257180  0.8309259812257180
  0.8332484010538150  0.5002004734610970  0.1669599140666663
  0.8332484010538150  0.1669599140666663  0.5002004734610970
  0.5002004734610970  0.8332484010538150  0.1669599140666663
  0.5002004734610970  0.1669599140666663  0.8332484010538150
  0.1669599140666663  0.8332484010538150  0.5002004734610970
  0.1669599140666663  0.5002004734610970  0.8332484010538150
  0.5002848624313890  0.1673575471083142  0.1673575471083142
  0.1673575471083142  0.5002848624313890  0.1673575471083142
  0.1673575471083142  0.1673575471083142  0.5002848624313890
  0.0000951802293525  0.6667040490177093  0.5002316072574489
  0.0000951802293525  0.5002316072574489  0.6667040490177093
  0.6667040490177093  0.0000951802293525  0.5002316072574489
  0.5002316072574489  0.0000951802293525  0.6667040490177093
  0.6667040490177093  0.5002316072574489  0.0000951802293525
  0.5002316072574489  0.6667040490177093  0.0000951802293525
  0.0002905506554618  0.5002017073449220  0.3335692835313144
  0.0002905506554618  0.3335692835313144  0.5002017073449220
  0.5002017073449220  0.0002905506554618  0.3335692835313144
  0.3335692835313144  0.0002905506554618  0.5002017073449220
  0.5002017073449220  0.3335692835313144  0.0002905506554618
  0.3335692835313144  0.5002017073449220  0.0002905506554618
  0.8328669225349069  0.8328669225349069  0.8328669225349069
  0.8334852985244062  0.8334852985244062  0.1663354493050956
  0.8334852985244062  0.1663354493050956  0.8334852985244062
  0.1663354493050956  0.8334852985244062  0.8334852985244062
  0.8335104577838314  0.1667847367911558  0.1667847367911558
  0.1667847367911558  0.8335104577838314  0.1667847367911558
  0.1667847367911558  0.1667847367911558  0.8335104577838314
  0.1671640261108734  0.1671640261108734  0.1671640261108734
  0.9992671217543551  0.8329372842534939  0.6665113961920094
  0.9992671217543551  0.6665113961920094  0.8329372842534939
  0.8329372842534939  0.9992671217543551  0.6665113961920094
  0.8329372842534939  0.6665113961920094  0.9992671217543551
  0.6665113961920094  0.9992671217543551  0.8329372842534939
  0.6665113961920094  0.8329372842534939  0.9992671217543551
  0.0001787386909011  0.8336525778584311  0.3335365682137946
  0.8336525778584311  0.0001787386909011  0.3335365682137946
  0.0001787386909011  0.3335365682137946  0.8336525778584311
  0.8336525778584311  0.3335365682137946  0.0001787386909011
  0.9999534296204525  0.6667043171187369  0.1665008862181142
  0.3335365682137946  0.0001787386909011  0.8336525778584311
  0.3335365682137946  0.8336525778584311  0.0001787386909011
  0.6667043171187369  0.9999534296204525  0.1665008862181142
  0.9999534296204525  0.1665008862181142  0.6667043171187369
  0.6667043171187369  0.1665008862181142  0.9999534296204525
  0.0005018700409764  0.3336674777684837  0.1671076124825089
  0.1665008862181142  0.9999534296204525  0.6667043171187369
  0.0005018700409764  0.1671076124825089  0.3336674777684837
  0.1665008862181142  0.6667043171187369  0.9999534296204525
  0.3336674777684837  0.0005018700409764  0.1671076124825089
  0.1671076124825089  0.0005018700409764  0.3336674777684837
  0.3336674777684837  0.1671076124825089  0.0005018700409764
  0.1671076124825089  0.3336674777684837  0.0005018700409764
  0.9994854761643427  0.9994854761643427  0.5003225944939520
  0.9994854761643427  0.5003225944939520  0.9994854761643427
  0.5003225944939520  0.9994854761643427  0.9994854761643427
  0.9998969946873958  0.9998969946873958  0.8333105570379191
  0.9998969946873958  0.8333105570379191  0.9998969946873958
  0.8333105570379191  0.9998969946873958  0.9998969946873958
  0.0002381669125135  0.0002381669125135  0.1667913853110315
  0.0002381669125135  0.1667913853110315  0.0002381669125135
  0.1667913853110315  0.0002381669125135  0.0002381669125135
  0.4753178696736247  0.4753178696736247  0.4753178696736247
  0.5685557628431466  0.5685557628431466  0.5685557628431466
  0.5814406107740040  0.4222564482031977  0.4222564482031977
  0.4222564482031977  0.5814406107740040  0.4222564482031977
  0.4222564482031977  0.4222564482031977  0.5814406107740040
  0.7508352729308013  0.5844919164172336  0.4175358669554211
  0.7508352729308013  0.4175358669554211  0.5844919164172336
  0.5844919164172336  0.7508352729308013  0.4175358669554211
  0.5844919164172336  0.4175358669554211  0.7508352729308013
  0.4175358669554211  0.7508352729308013  0.5844919164172336
  0.4175358669554211  0.5844919164172336  0.7508352729308013
  0.5837383400251159  0.5837383400251159  0.2505850309584606
  0.5837383400251159  0.2505850309584606  0.5837383400251159
  0.2505850309584606  0.5837383400251159  0.5837383400251159
  0.4176215302479215  0.4176215302479215  0.2512816966023791
  0.4176215302479215  0.2512816966023791  0.4176215302479215
  0.2512816966023791  0.4176215302479215  0.4176215302479215
  0.7459763311248042  0.7459763311248042  0.5815081463685008
  0.7459763311248042  0.5815081463685008  0.7459763311248042
  0.5815081463685008  0.7459763311248042  0.7459763311248042
  0.7495364981787751  0.4164970169385415  0.2504549552062840
  0.7495364981787751  0.2504549552062840  0.4164970169385415
  0.4164970169385415  0.7495364981787751  0.2504549552062840
  0.2504549552062840  0.7495364981787751  0.4164970169385415
  0.4164970169385415  0.2504549552062840  0.7495364981787751
  0.2504549552062840  0.4164970169385415  0.7495364981787751
  0.5834800499037398  0.2512735688916837  0.2512735688916837
  0.2512735688916837  0.5834800499037398  0.2512735688916837
  0.2512735688916837  0.2512735688916837  0.5834800499037398
  0.9167195612319324  0.5835276713863429  0.5835276713863429
  0.5835276713863429  0.9167195612319324  0.5835276713863429
  0.5835276713863429  0.5835276713863429  0.9167195612319324
  0.9170152695907576  0.4166732007770667  0.4166732007770667
  0.7503357928647356  0.7503357928647356  0.2499200830973061
  0.7503357928647356  0.2499200830973061  0.7503357928647356
  0.4166732007770667  0.9170152695907576  0.4166732007770667
  0.4166732007770667  0.4166732007770667  0.9170152695907576
  0.2499200830973061  0.7503357928647356  0.7503357928647356
  0.5834665887363325  0.4169732008158450  0.0836318902818228
  0.4169732008158450  0.5834665887363325  0.0836318902818228
  0.5834665887363325  0.0836318902818228  0.4169732008158450
  0.4169732008158450  0.0836318902818228  0.5834665887363325
  0.0836318902818228  0.5834665887363325  0.4169732008158450
  0.0836318902818228  0.4169732008158450  0.5834665887363325
  0.2506252863933212  0.2506252863933212  0.2506252863933212
  0.9169475461968972  0.7503138772094030  0.4169671546962768
  0.7503138772094030  0.9169475461968972  0.4169671546962768
  0.9169475461968972  0.4169671546962768  0.7503138772094030
  0.7503138772094030  0.4169671546962768  0.9169475461968972
  0.4169671546962768  0.9169475461968972  0.7503138772094030
  0.4169671546962768  0.7503138772094030  0.9169475461968972
  0.9168361307232152  0.5834415225229798  0.2501877895070989
  0.9168361307232152  0.2501877895070989  0.5834415225229798
  0.5834415225229798  0.9168361307232152  0.2501877895070989
  0.5834415225229798  0.2501877895070989  0.9168361307232152
  0.2501877895070989  0.9168361307232152  0.5834415225229798
  0.2501877895070989  0.5834415225229798  0.9168361307232152
  0.7500753914203619  0.5834753333635728  0.0834875575036235
  0.5834753333635728  0.7500753914203619  0.0834875575036235
  0.7500753914203619  0.0834875575036235  0.5834753333635728
  0.5834753333635728  0.0834875575036235  0.7500753914203619
  0.0834875575036235  0.7500753914203619  0.5834753333635728
  0.0834875575036235  0.5834753333635728  0.7500753914203619
  0.4169509553430382  0.2505714678866600  0.0839837210834915
  0.4169509553430382  0.0839837210834915  0.2505714678866600
  0.2505714678866600  0.4169509553430382  0.0839837210834915
  0.2505714678866600  0.0839837210834915  0.4169509553430382
  0.0839837210834915  0.4169509553430382  0.2505714678866600
  0.0839837210834915  0.2505714678866600  0.4169509553430382
  0.9154986404366564  0.7491867073304418  0.7491867073304418
  0.7491867073304418  0.9154986404366564  0.7491867073304418
  0.7491867073304418  0.7491867073304418  0.9154986404366564
  0.9168613506440270  0.2501553828832351  0.2501553828832351
  0.2501553828832351  0.9168613506440270  0.2501553828832351
  0.2501553828832351  0.2501553828832351  0.9168613506440270
  0.7500734036464968  0.2499774011596451  0.0833345773832718
  0.7500734036464968  0.0833345773832718  0.2499774011596451
  0.2499774011596451  0.7500734036464968  0.0833345773832718
  0.0833345773832718  0.7500734036464968  0.2499774011596451
  0.2499774011596451  0.0833345773832718  0.7500734036464968
  0.0833345773832718  0.2499774011596451  0.7500734036464968
  0.9153323520976329  0.9153323520976329  0.5828604571108584
  0.9153323520976329  0.5828604571108584  0.9153323520976329
  0.5828604571108584  0.9153323520976329  0.9153323520976329
  0.9169054847318868  0.4168249291616401  0.0836989992989171
  0.9169054847318868  0.0836989992989171  0.4168249291616401
  0.4168249291616401  0.9169054847318868  0.0836989992989171
  0.0836989992989171  0.9169054847318868  0.4168249291616401
  0.4168249291616401  0.0836989992989171  0.9169054847318868
  0.0836989992989171  0.4168249291616401  0.9169054847318868
  0.5832388871211133  0.0834379269745435  0.0834379269745435
  0.0834379269745435  0.5832388871211133  0.0834379269745435
  0.0834379269745435  0.0834379269745435  0.5832388871211133
  0.9168205206818083  0.9168205206818083  0.2499242201904851
  0.9168205206818083  0.2499242201904851  0.9168205206818083
  0.9164705674350678  0.7497865300296341  0.0829159739024559
  0.2499242201904851  0.9168205206818083  0.9168205206818083
  0.7497865300296341  0.9164705674350678  0.0829159739024559
  0.9164705674350678  0.0829159739024559  0.7497865300296341
  0.7497865300296341  0.0829159739024559  0.9164705674350678
  0.0829159739024559  0.9164705674350678  0.7497865300296341
  0.0829159739024559  0.7497865300296341  0.9164705674350678
  0.2502208987014913  0.0836455983661348  0.0836455983661348
  0.0836455983661348  0.2502208987014913  0.0836455983661348
  0.0836455983661348  0.0836455983661348  0.2502208987014913
  0.9163744313895752  0.9163744313895752  0.9163744313895752
  0.9167039682100776  0.0833639315621274  0.0833639315621274
  0.0833639315621274  0.9167039682100776  0.0833639315621274
  0.0833639315621274  0.0833639315621274  0.9167039682100776
 
  0.00000000E+00  0.00000000E+00  0.00000000E+00
  0.00000000E+00  0.00000000E+00  0.00000000E+00
  0.00000000E+00  0.00000000E+00  0.00000000E+00
  0.00000000E+00  0.00000000E+00  0.00000000E+00
  0.00000000E+00  0.00000000E+00  0.00000000E+00
  0.00000000E+00  0.00000000E+00  0.00000000E+00
  0.00000000E+00  0.00000000E+00  0.00000000E+00
  0.00000000E+00  0.00000000E+00  0.00000000E+00
  0.00000000E+00  0.00000000E+00  0.00000000E+00
  0.00000000E+00  0.00000000E+00  0.00000000E+00
  0.00000000E+00  0.00000000E+00  0.00000000E+00
  0.00000000E+00  0.00000000E+00  0.00000000E+00
  0.00000000E+00  0.00000000E+00  0.00000000E+00
  0.00000000E+00  0.00000000E+00  0.00000000E+00
  0.00000000E+00  0.00000000E+00  0.00000000E+00
  0.00000000E+00  0.00000000E+00  0.00000000E+00
  0.00000000E+00  0.00000000E+00  0.00000000E+00
  0.00000000E+00  0.00000000E+00  0.00000000E+00
  0.00000000E+00  0.00000000E+00  0.00000000E+00
  0.00000000E+00  0.00000000E+00  0.00000000E+00
  0.00000000E+00  0.00000000E+00  0.00000000E+00
  0.00000000E+00  0.00000000E+00  0.00000000E+00
  0.00000000E+00  0.00000000E+00  0.00000000E+00
  0.00000000E+00  0.00000000E+00  0.00000000E+00
  0.00000000E+00  0.00000000E+00  0.00000000E+00
  0.00000000E+00  0.00000000E+00  0.00000000E+00
  0.00000000E+00  0.00000000E+00  0.00000000E+00
  0.00000000E+00  0.00000000E+00  0.00000000E+00
  0.00000000E+00  0.00000000E+00  0.00000000E+00
  0.00000000E+00  0.00000000E+00  0.00000000E+00
  0.00000000E+00  0.00000000E+00  0.00000000E+00
  0.00000000E+00  0.00000000E+00  0.00000000E+00
  0.00000000E+00  0.00000000E+00  0.00000000E+00
  0.00000000E+00  0.00000000E+00  0.00000000E+00
  0.00000000E+00  0.00000000E+00  0.00000000E+00
  0.00000000E+00  0.00000000E+00  0.00000000E+00
  0.00000000E+00  0.00000000E+00  0.00000000E+00
  0.00000000E+00  0.00000000E+00  0.00000000E+00
  0.00000000E+00  0.00000000E+00  0.00000000E+00
  0.00000000E+00  0.00000000E+00  0.00000000E+00
  0.00000000E+00  0.00000000E+00  0.00000000E+00
  0.00000000E+00  0.00000000E+00  0.00000000E+00
  0.00000000E+00  0.00000000E+00  0.00000000E+00
  0.00000000E+00  0.00000000E+00  0.00000000E+00
  0.00000000E+00  0.00000000E+00  0.00000000E+00
  0.00000000E+00  0.00000000E+00  0.00000000E+00
  0.00000000E+00  0.00000000E+00  0.00000000E+00
  0.00000000E+00  0.00000000E+00  0.00000000E+00
  0.00000000E+00  0.00000000E+00  0.00000000E+00
  0.00000000E+00  0.00000000E+00  0.00000000E+00
  0.00000000E+00  0.00000000E+00  0.00000000E+00
  0.00000000E+00  0.00000000E+00  0.00000000E+00
  0.00000000E+00  0.00000000E+00  0.00000000E+00
  0.00000000E+00  0.00000000E+00  0.00000000E+00
  0.00000000E+00  0.00000000E+00  0.00000000E+00
  0.00000000E+00  0.00000000E+00  0.00000000E+00
  0.00000000E+00  0.00000000E+00  0.00000000E+00
  0.00000000E+00  0.00000000E+00  0.00000000E+00
  0.00000000E+00  0.00000000E+00  0.00000000E+00
  0.00000000E+00  0.00000000E+00  0.00000000E+00
  0.00000000E+00  0.00000000E+00  0.00000000E+00
  0.00000000E+00  0.00000000E+00  0.00000000E+00
  0.00000000E+00  0.00000000E+00  0.00000000E+00
  0.00000000E+00  0.00000000E+00  0.00000000E+00
  0.00000000E+00  0.00000000E+00  0.00000000E+00
  0.00000000E+00  0.00000000E+00  0.00000000E+00
  0.00000000E+00  0.00000000E+00  0.00000000E+00
  0.00000000E+00  0.00000000E+00  0.00000000E+00
  0.00000000E+00  0.00000000E+00  0.00000000E+00
  0.00000000E+00  0.00000000E+00  0.00000000E+00
  0.00000000E+00  0.00000000E+00  0.00000000E+00
  0.00000000E+00  0.00000000E+00  0.00000000E+00
  0.00000000E+00  0.00000000E+00  0.00000000E+00
  0.00000000E+00  0.00000000E+00  0.00000000E+00
  0.00000000E+00  0.00000000E+00  0.00000000E+00
  0.00000000E+00  0.00000000E+00  0.00000000E+00
  0.00000000E+00  0.00000000E+00  0.00000000E+00
  0.00000000E+00  0.00000000E+00  0.00000000E+00
  0.00000000E+00  0.00000000E+00  0.00000000E+00
  0.00000000E+00  0.00000000E+00  0.00000000E+00
  0.00000000E+00  0.00000000E+00  0.00000000E+00
  0.00000000E+00  0.00000000E+00  0.00000000E+00
  0.00000000E+00  0.00000000E+00  0.00000000E+00
  0.00000000E+00  0.00000000E+00  0.00000000E+00
  0.00000000E+00  0.00000000E+00  0.00000000E+00
  0.00000000E+00  0.00000000E+00  0.00000000E+00
  0.00000000E+00  0.00000000E+00  0.00000000E+00
  0.00000000E+00  0.00000000E+00  0.00000000E+00
  0.00000000E+00  0.00000000E+00  0.00000000E+00
  0.00000000E+00  0.00000000E+00  0.00000000E+00
  0.00000000E+00  0.00000000E+00  0.00000000E+00
  0.00000000E+00  0.00000000E+00  0.00000000E+00
  0.00000000E+00  0.00000000E+00  0.00000000E+00
  0.00000000E+00  0.00000000E+00  0.00000000E+00
  0.00000000E+00  0.00000000E+00  0.00000000E+00
  0.00000000E+00  0.00000000E+00  0.00000000E+00
  0.00000000E+00  0.00000000E+00  0.00000000E+00
  0.00000000E+00  0.00000000E+00  0.00000000E+00
  0.00000000E+00  0.00000000E+00  0.00000000E+00
  0.00000000E+00  0.00000000E+00  0.00000000E+00
  0.00000000E+00  0.00000000E+00  0.00000000E+00
  0.00000000E+00  0.00000000E+00  0.00000000E+00
  0.00000000E+00  0.00000000E+00  0.00000000E+00
  0.00000000E+00  0.00000000E+00  0.00000000E+00
  0.00000000E+00  0.00000000E+00  0.00000000E+00
  0.00000000E+00  0.00000000E+00  0.00000000E+00
  0.00000000E+00  0.00000000E+00  0.00000000E+00
  0.00000000E+00  0.00000000E+00  0.00000000E+00
  0.00000000E+00  0.00000000E+00  0.00000000E+00
  0.00000000E+00  0.00000000E+00  0.00000000E+00
  0.00000000E+00  0.00000000E+00  0.00000000E+00
  0.00000000E+00  0.00000000E+00  0.00000000E+00
  0.00000000E+00  0.00000000E+00  0.00000000E+00
  0.00000000E+00  0.00000000E+00  0.00000000E+00
  0.00000000E+00  0.00000000E+00  0.00000000E+00
  0.00000000E+00  0.00000000E+00  0.00000000E+00
  0.00000000E+00  0.00000000E+00  0.00000000E+00
  0.00000000E+00  0.00000000E+00  0.00000000E+00
  0.00000000E+00  0.00000000E+00  0.00000000E+00
  0.00000000E+00  0.00000000E+00  0.00000000E+00
  0.00000000E+00  0.00000000E+00  0.00000000E+00
  0.00000000E+00  0.00000000E+00  0.00000000E+00
  0.00000000E+00  0.00000000E+00  0.00000000E+00
  0.00000000E+00  0.00000000E+00  0.00000000E+00
  0.00000000E+00  0.00000000E+00  0.00000000E+00
  0.00000000E+00  0.00000000E+00  0.00000000E+00
  0.00000000E+00  0.00000000E+00  0.00000000E+00
  0.00000000E+00  0.00000000E+00  0.00000000E+00
  0.00000000E+00  0.00000000E+00  0.00000000E+00
  0.00000000E+00  0.00000000E+00  0.00000000E+00
  0.00000000E+00  0.00000000E+00  0.00000000E+00
  0.00000000E+00  0.00000000E+00  0.00000000E+00
  0.00000000E+00  0.00000000E+00  0.00000000E+00
  0.00000000E+00  0.00000000E+00  0.00000000E+00
  0.00000000E+00  0.00000000E+00  0.00000000E+00
  0.00000000E+00  0.00000000E+00  0.00000000E+00
  0.00000000E+00  0.00000000E+00  0.00000000E+00
  0.00000000E+00  0.00000000E+00  0.00000000E+00
  0.00000000E+00  0.00000000E+00  0.00000000E+00
  0.00000000E+00  0.00000000E+00  0.00000000E+00
  0.00000000E+00  0.00000000E+00  0.00000000E+00
  0.00000000E+00  0.00000000E+00  0.00000000E+00
  0.00000000E+00  0.00000000E+00  0.00000000E+00
  0.00000000E+00  0.00000000E+00  0.00000000E+00
  0.00000000E+00  0.00000000E+00  0.00000000E+00
  0.00000000E+00  0.00000000E+00  0.00000000E+00
  0.00000000E+00  0.00000000E+00  0.00000000E+00
  0.00000000E+00  0.00000000E+00  0.00000000E+00
  0.00000000E+00  0.00000000E+00  0.00000000E+00
  0.00000000E+00  0.00000000E+00  0.00000000E+00
  0.00000000E+00  0.00000000E+00  0.00000000E+00
  0.00000000E+00  0.00000000E+00  0.00000000E+00
  0.00000000E+00  0.00000000E+00  0.00000000E+00
  0.00000000E+00  0.00000000E+00  0.00000000E+00
  0.00000000E+00  0.00000000E+00  0.00000000E+00
  0.00000000E+00  0.00000000E+00  0.00000000E+00
  0.00000000E+00  0.00000000E+00  0.00000000E+00
  0.00000000E+00  0.00000000E+00  0.00000000E+00
  0.00000000E+00  0.00000000E+00  0.00000000E+00
  0.00000000E+00  0.00000000E+00  0.00000000E+00
  0.00000000E+00  0.00000000E+00  0.00000000E+00
  0.00000000E+00  0.00000000E+00  0.00000000E+00
  0.00000000E+00  0.00000000E+00  0.00000000E+00
  0.00000000E+00  0.00000000E+00  0.00000000E+00
  0.00000000E+00  0.00000000E+00  0.00000000E+00
  0.00000000E+00  0.00000000E+00  0.00000000E+00
  0.00000000E+00  0.00000000E+00  0.00000000E+00
  0.00000000E+00  0.00000000E+00  0.00000000E+00
  0.00000000E+00  0.00000000E+00  0.00000000E+00
  0.00000000E+00  0.00000000E+00  0.00000000E+00
  0.00000000E+00  0.00000000E+00  0.00000000E+00
  0.00000000E+00  0.00000000E+00  0.00000000E+00
  0.00000000E+00  0.00000000E+00  0.00000000E+00
  0.00000000E+00  0.00000000E+00  0.00000000E+00
  0.00000000E+00  0.00000000E+00  0.00000000E+00
  0.00000000E+00  0.00000000E+00  0.00000000E+00
  0.00000000E+00  0.00000000E+00  0.00000000E+00
  0.00000000E+00  0.00000000E+00  0.00000000E+00
  0.00000000E+00  0.00000000E+00  0.00000000E+00
  0.00000000E+00  0.00000000E+00  0.00000000E+00
  0.00000000E+00  0.00000000E+00  0.00000000E+00
  0.00000000E+00  0.00000000E+00  0.00000000E+00
  0.00000000E+00  0.00000000E+00  0.00000000E+00
  0.00000000E+00  0.00000000E+00  0.00000000E+00
  0.00000000E+00  0.00000000E+00  0.00000000E+00
  0.00000000E+00  0.00000000E+00  0.00000000E+00
  0.00000000E+00  0.00000000E+00  0.00000000E+00
  0.00000000E+00  0.00000000E+00  0.00000000E+00
  0.00000000E+00  0.00000000E+00  0.00000000E+00
  0.00000000E+00  0.00000000E+00  0.00000000E+00
  0.00000000E+00  0.00000000E+00  0.00000000E+00
  0.00000000E+00  0.00000000E+00  0.00000000E+00
  0.00000000E+00  0.00000000E+00  0.00000000E+00
  0.00000000E+00  0.00000000E+00  0.00000000E+00
  0.00000000E+00  0.00000000E+00  0.00000000E+00
  0.00000000E+00  0.00000000E+00  0.00000000E+00
  0.00000000E+00  0.00000000E+00  0.00000000E+00
  0.00000000E+00  0.00000000E+00  0.00000000E+00
  0.00000000E+00  0.00000000E+00  0.00000000E+00
  0.00000000E+00  0.00000000E+00  0.00000000E+00
  0.00000000E+00  0.00000000E+00  0.00000000E+00
  0.00000000E+00  0.00000000E+00  0.00000000E+00
  0.00000000E+00  0.00000000E+00  0.00000000E+00
  0.00000000E+00  0.00000000E+00  0.00000000E+00
  0.00000000E+00  0.00000000E+00  0.00000000E+00
  0.00000000E+00  0.00000000E+00  0.00000000E+00
  0.00000000E+00  0.00000000E+00  0.00000000E+00
  0.00000000E+00  0.00000000E+00  0.00000000E+00
  0.00000000E+00  0.00000000E+00  0.00000000E+00
  0.00000000E+00  0.00000000E+00  0.00000000E+00
  0.00000000E+00  0.00000000E+00  0.00000000E+00
  0.00000000E+00  0.00000000E+00  0.00000000E+00
  0.00000000E+00  0.00000000E+00  0.00000000E+00
  0.00000000E+00  0.00000000E+00  0.00000000E+00
  0.00000000E+00  0.00000000E+00  0.00000000E+00
  0.00000000E+00  0.00000000E+00  0.00000000E+00
