# This file was generated by FitSNAP.
# Hash: 2ca62c84c4d632f3cd9c542c0847f6d7

pair_style hybrid/overlay zbl 0.580000 2.320000 pace product
pair_coeff 1 1 zbl 73 73
pair_coeff * * pace Ta-ACE_pot.yace Ta