POSCAR file written by OVITO
1
   11.70751661  0.0000000000000000    0.0000000000000000
   0.0000000000000000   11.70751661   0.0000000000000000
   0.0000000000000000   0.0000000000000000    11.70751661
In P 
32 32 
Cartesian
8.8411456 8.8411456 8.8411456
10.3117819 7.3221126 7.3221126
7.3221126 10.3117819 7.3221126
7.3221126 7.3221126 10.3117819
13.1149492 10.1792765 7.3449869
13.1149492 7.3449869 10.1792765
10.1792765 13.1149492 7.3449869
10.1792765 7.3449869 13.1149492
7.3449869 13.1149492 10.1792765
7.3449869 10.1792765 13.1149492
10.2438212 10.2438212 4.391645
10.2438212 4.391645 10.2438212
4.391645 10.2438212 10.2438212
7.3220301 7.3220301 4.4198933
7.3220301 4.4198933 7.3220301
4.4198933 7.3220301 7.3220301
13.1703873 13.1703873 10.2935095
13.1703873 10.2935095 13.1703873
10.2935095 13.1703873 13.1703873
13.2107468 7.3152514 4.3489132
13.2107468 4.3489132 7.3152514
7.3152514 13.2107468 4.3489132
4.3489132 13.2107468 7.3152514
7.3152514 4.3489132 13.2107468
4.3489132 7.3152514 13.2107468
10.2348976 4.3871131 4.3871131
4.3871131 10.2348976 4.3871131
4.3871131 4.3871131 10.2348976
13.1627541 13.1627541 4.396955
13.1627541 4.396955 13.1627541
4.396955 13.1627541 13.1627541
4.3932815 4.3932815 4.3932815
10.3021088 10.3021088 10.3021088
11.6062079 11.6062079 8.9722004
11.6062079 8.9722004 11.6062079
8.9722004 11.6062079 11.6062079
11.742321 8.754098 5.79074
11.742321 5.79074 8.754098
8.754098 11.742321 5.79074
8.754098 5.79074 11.742321
5.79074 11.742321 8.754098
5.79074 8.754098 11.742321
8.8094683 5.8569318 5.8569318
5.8569318 8.8094683 5.8569318
5.8569318 5.8569318 8.8094683
14.6460095 8.7826138 8.7826138
8.7826138 14.6460095 8.7826138
8.7826138 8.7826138 14.6460095
14.6608019 11.7145462 11.7145462
11.7145462 14.6608019 11.7145462
11.7145462 11.7145462 14.6608019
14.5839653 11.698802 5.9048954
11.698802 14.5839653 5.9048954
14.5839653 5.9048954 11.698802
11.698802 5.9048954 14.5839653
5.9048954 14.5839653 11.698802
5.9048954 11.698802 14.5839653
14.6393585 5.8454448 5.8454448
5.8454448 14.6393585 5.8454448
5.8454448 5.8454448 14.6393585
14.6095162 14.6095162 8.7826338
14.6095162 8.7826338 14.6095162
8.7826338 14.6095162 14.6095162
14.637456 14.637456 14.637456
