Initial State for  iIn_0_110pCs_tdA_sc3k
   1.00000000000000     
    17.5612749176088023    0.0000000000000000    0.0000000000000000
     0.0000000000000000   17.5612749176088023    0.0000000000000000
     0.0000000000000000    0.0000000000000000   17.5612749176088023
   In   P 
   108   109
Direct
  0.5861583943359484  0.5861583943359484  0.5861583943359484
  0.5861583943359484  0.4138416056640515  0.4138416056640515
  0.4138416056640515  0.5861583943359484  0.4138416056640515
  0.4138416056640515  0.4138416056640515  0.5861583943359484
  0.7524238356553926  0.5842911531556610  0.4157088468443389
  0.7524238356553926  0.4157088468443389  0.5842911531556610
  0.5842911531556610  0.7524238356553926  0.4157088468443389
  0.5842911531556610  0.4157088468443389  0.7524238356553926
  0.4157088468443389  0.7524238356553926  0.5842911531556610
  0.4157088468443389  0.5842911531556610  0.7524238356553926
  0.5842911531556610  0.5842911531556610  0.2475761643446075
  0.5842911531556610  0.2475761643446075  0.5842911531556610
  0.2475761643446075  0.5842911531556610  0.5842911531556610
  0.4157088468443389  0.4157088468443389  0.2475761643446075
  0.4157088468443389  0.2475761643446075  0.4157088468443389
  0.2475761643446075  0.4157088468443389  0.4157088468443389
  0.7510675675780363  0.7510675675780363  0.5829544152639380
  0.7510675675780363  0.5829544152639380  0.7510675675780363
  0.5829544152639380  0.7510675675780363  0.7510675675780363
  0.7510675675780363  0.4170455847360620  0.2489324324219638
  0.7510675675780363  0.2489324324219638  0.4170455847360620
  0.4170455847360620  0.7510675675780363  0.2489324324219638
  0.2489324324219638  0.7510675675780363  0.4170455847360620
  0.4170455847360620  0.2489324324219638  0.7510675675780363
  0.2489324324219638  0.4170455847360620  0.7510675675780363
  0.5829544152639380  0.2489324324219638  0.2489324324219638
  0.2489324324219638  0.5829544152639380  0.2489324324219638
  0.2489324324219638  0.2489324324219638  0.5829544152639380
  0.9168946789730745  0.5834616794992620  0.5834616794992620
  0.5834616794992620  0.9168946789730745  0.5834616794992620
  0.5834616794992620  0.5834616794992620  0.9168946789730745
  0.9168946789730745  0.4165383205007380  0.4165383205007380
  0.7499942194369831  0.7499942194369831  0.2500057805630167
  0.7499942194369831  0.2500057805630167  0.7499942194369831
  0.4165383205007380  0.9168946789730745  0.4165383205007380
  0.4165383205007380  0.4165383205007380  0.9168946789730745
  0.2500057805630167  0.7499942194369831  0.7499942194369831
  0.5834616794992620  0.4165383205007380  0.0831053210269256
  0.4165383205007380  0.5834616794992620  0.0831053210269256
  0.5834616794992620  0.0831053210269256  0.4165383205007380
  0.4165383205007380  0.0831053210269256  0.5834616794992620
  0.0831053210269256  0.5834616794992620  0.4165383205007380
  0.0831053210269256  0.4165383205007380  0.5834616794992620
  0.2500057805630167  0.2500057805630167  0.2500057805630167
  0.9171646156397849  0.7506965834681465  0.4164455144477112
  0.7506965834681465  0.9171646156397849  0.4164455144477112
  0.9171646156397849  0.4164455144477112  0.7506965834681465
  0.7506965834681465  0.4164455144477112  0.9171646156397849
  0.4164455144477112  0.9171646156397849  0.7506965834681465
  0.4164455144477112  0.7506965834681465  0.9171646156397849
  0.9171646156397849  0.5835544855522887  0.2493034165318536
  0.9171646156397849  0.2493034165318536  0.5835544855522887
  0.5835544855522887  0.9171646156397849  0.2493034165318536
  0.5835544855522887  0.2493034165318536  0.9171646156397849
  0.2493034165318536  0.9171646156397849  0.5835544855522887
  0.2493034165318536  0.5835544855522887  0.9171646156397849
  0.7506965834681465  0.5835544855522887  0.0828353843602150
  0.5835544855522887  0.7506965834681465  0.0828353843602150
  0.7506965834681465  0.0828353843602150  0.5835544855522887
  0.5835544855522887  0.0828353843602150  0.7506965834681465
  0.0828353843602150  0.7506965834681465  0.5835544855522887
  0.0828353843602150  0.5835544855522887  0.7506965834681465
  0.4164455144477112  0.2493034165318536  0.0828353843602150
  0.4164455144477112  0.0828353843602150  0.2493034165318536
  0.2493034165318536  0.4164455144477112  0.0828353843602150
  0.2493034165318536  0.0828353843602150  0.4164455144477112
  0.0828353843602150  0.4164455144477112  0.2493034165318536
  0.0828353843602150  0.2493034165318536  0.4164455144477112
  0.9168463256126311  0.7501404070567119  0.7501404070567119
  0.7501404070567119  0.9168463256126311  0.7501404070567119
  0.7501404070567119  0.7501404070567119  0.9168463256126311
  0.9168463256126311  0.2498595929432876  0.2498595929432876
  0.2498595929432876  0.9168463256126311  0.2498595929432876
  0.2498595929432876  0.2498595929432876  0.9168463256126311
  0.7501404070567119  0.2498595929432876  0.0831536743873690
  0.7501404070567119  0.0831536743873690  0.2498595929432876
  0.2498595929432876  0.7501404070567119  0.0831536743873690
  0.0831536743873690  0.7501404070567119  0.2498595929432876
  0.2498595929432876  0.0831536743873690  0.7501404070567119
  0.0831536743873690  0.2498595929432876  0.7501404070567119
  0.9169203779173607  0.9169203779173607  0.5834522637217466
  0.9169203779173607  0.5834522637217466  0.9169203779173607
  0.5834522637217466  0.9169203779173607  0.9169203779173607
  0.9169203779173607  0.4165477362782534  0.0830796220826393
  0.9169203779173607  0.0830796220826393  0.4165477362782534
  0.4165477362782534  0.9169203779173607  0.0830796220826393
  0.0830796220826393  0.9169203779173607  0.4165477362782534
  0.4165477362782534  0.0830796220826393  0.9169203779173607
  0.0830796220826393  0.4165477362782534  0.9169203779173607
  0.5834522637217466  0.0830796220826393  0.0830796220826393
  0.0830796220826393  0.5834522637217466  0.0830796220826393
  0.0830796220826393  0.0830796220826393  0.5834522637217466
  0.9166959040021577  0.9166959040021577  0.2498277420573934
  0.9166959040021577  0.2498277420573934  0.9166959040021577
  0.9166959040021577  0.7501722579426064  0.0833040959978424
  0.7501722579426064  0.9166959040021577  0.0833040959978424
  0.2498277420573934  0.9166959040021577  0.9166959040021577
  0.9166959040021577  0.0833040959978424  0.7501722579426064
  0.7501722579426064  0.0833040959978424  0.9166959040021577
  0.0833040959978424  0.9166959040021577  0.7501722579426064
  0.0833040959978424  0.7501722579426064  0.9166959040021577
  0.2498277420573934  0.0833040959978424  0.0833040959978424
  0.0833040959978424  0.2498277420573934  0.0833040959978424
  0.0833040959978424  0.0833040959978424  0.2498277420573934
  0.9167196061284034  0.9167196061284034  0.9167196061284034
  0.9167196061284034  0.0832803938715966  0.0832803938715966
  0.0832803938715966  0.9167196061284034  0.0832803938715966
  0.0832803938715966  0.0832803938715966  0.9167196061284034
  0.5000000000000000  0.5000000000000000  0.5000000000000000
  0.6717885906304746  0.5000000000000000  0.5000000000000000
  0.5000000000000000  0.6717885906304746  0.5000000000000000
  0.5000000000000000  0.5000000000000000  0.6717885906304746
  0.5000000000000000  0.5000000000000000  0.3282114093695253
  0.5000000000000000  0.3282114093695253  0.5000000000000000
  0.3282114093695253  0.5000000000000000  0.5000000000000000
  0.6688550187480234  0.6688550187480234  0.6688550187480234
  0.6667463862181623  0.6667463862181623  0.3332536137818375
  0.6667463862181623  0.3332536137818375  0.6667463862181623
  0.3332536137818375  0.6667463862181623  0.6667463862181623
  0.6688550187480234  0.3311449812519764  0.3311449812519764
  0.3311449812519764  0.6688550187480234  0.3311449812519764
  0.3311449812519764  0.3311449812519764  0.6688550187480234
  0.3332536137818375  0.3332536137818375  0.3332536137818375
  0.8343810465911644  0.6675507928347482  0.5000924386258030
  0.8343810465911644  0.5000924386258030  0.6675507928347482
  0.6675507928347482  0.8343810465911644  0.5000924386258030
  0.6675507928347482  0.5000924386258030  0.8343810465911644
  0.5000924386258030  0.8343810465911644  0.6675507928347482
  0.5000924386258030  0.6675507928347482  0.8343810465911644
  0.8343810465911644  0.4999075613741972  0.3324492071652517
  0.8343810465911644  0.3324492071652517  0.4999075613741972
  0.4999075613741972  0.8343810465911644  0.3324492071652517
  0.3324492071652517  0.8343810465911644  0.4999075613741972
  0.4999075613741972  0.3324492071652517  0.8343810465911644
  0.3324492071652517  0.4999075613741972  0.8343810465911644
  0.6675507928347482  0.4999075613741972  0.1656189534088357
  0.4999075613741972  0.6675507928347482  0.1656189534088357
  0.6675507928347482  0.1656189534088357  0.4999075613741972
  0.4999075613741972  0.1656189534088357  0.6675507928347482
  0.1656189534088357  0.6675507928347482  0.4999075613741972
  0.1656189534088357  0.4999075613741972  0.6675507928347482
  0.5000924386258030  0.3324492071652517  0.1656189534088357
  0.5000924386258030  0.1656189534088357  0.3324492071652517
  0.3324492071652517  0.5000924386258030  0.1656189534088357
  0.3324492071652517  0.1656189534088357  0.5000924386258030
  0.1656189534088357  0.5000924386258030  0.3324492071652517
  0.1656189534088357  0.3324492071652517  0.5000924386258030
  0.8338005752372250  0.8338005752372250  0.6669937037827144
  0.8338005752372250  0.6669937037827144  0.8338005752372250
  0.6669937037827144  0.8338005752372250  0.8338005752372250
 -0.0000000000000000  0.5000000000000000  0.5000000000000000
  0.8334389134061538  0.8334389134061538  0.3330939007061612
  0.8334389134061538  0.3330939007061612  0.8334389134061538
  0.5000000000000000 -0.0000000000000000  0.5000000000000000
  0.5000000000000000  0.5000000000000000 -0.0000000000000000
  0.3330939007061612  0.8334389134061538  0.8334389134061538
  0.8334389134061538  0.6669060992938389  0.1665610865938462
  0.6669060992938389  0.8334389134061538  0.1665610865938462
  0.8334389134061538  0.1665610865938462  0.6669060992938389
  0.6669060992938389  0.1665610865938462  0.8334389134061538
  0.1665610865938462  0.8334389134061538  0.6669060992938389
  0.8338005752372250  0.3330062962172855  0.1661994247627752
  0.1665610865938462  0.6669060992938389  0.8334389134061538
  0.8338005752372250  0.1661994247627752  0.3330062962172855
  0.3330062962172855  0.8338005752372250  0.1661994247627752
  0.1661994247627752  0.8338005752372250  0.3330062962172855
  0.3330062962172855  0.1661994247627752  0.8338005752372250
  0.1661994247627752  0.3330062962172855  0.8338005752372250
  0.6669937037827144  0.1661994247627752  0.1661994247627752
  0.1661994247627752  0.6669937037827144  0.1661994247627752
  0.1661994247627752  0.1661994247627752  0.6669937037827144
  0.3330939007061612  0.1665610865938462  0.1665610865938462
  0.1665610865938462  0.3330939007061612  0.1665610865938462
  0.1665610865938462  0.1665610865938462  0.3330939007061612
  0.0000539278753182  0.6668379494617808  0.6668379494617808
  0.6668379494617808  0.0000539278753182  0.6668379494617808
  0.6668379494617808  0.6668379494617808  0.0000539278753182
  0.9999460721246819  0.6668379494617808  0.3331620505382192
  0.9999460721246819  0.3331620505382192  0.6668379494617808
  0.6668379494617808  0.9999460721246819  0.3331620505382192
  0.6668379494617808  0.3331620505382192  0.9999460721246819
  0.3331620505382192  0.9999460721246819  0.6668379494617808
  0.0000539278753182  0.3331620505382192  0.3331620505382192
  0.3331620505382192  0.6668379494617808  0.9999460721246819
  0.3331620505382192  0.0000539278753182  0.3331620505382192
  0.3331620505382192  0.3331620505382192  0.0000539278753182
 -0.0000000000000000  0.8338716516281701  0.5000000000000000
  0.8338716516281701 -0.0000000000000000  0.5000000000000000
 -0.0000000000000000  0.5000000000000000  0.8338716516281701
  0.8338716516281701  0.5000000000000000 -0.0000000000000000
  0.5000000000000000 -0.0000000000000000  0.8338716516281701
  0.5000000000000000  0.8338716516281701 -0.0000000000000000
 -0.0000000000000000  0.5000000000000000  0.1661283483718298
 -0.0000000000000000  0.1661283483718298  0.5000000000000000
  0.5000000000000000 -0.0000000000000000  0.1661283483718298
  0.1661283483718298 -0.0000000000000000  0.5000000000000000
  0.5000000000000000  0.1661283483718298 -0.0000000000000000
  0.1661283483718298  0.5000000000000000 -0.0000000000000000
  0.0000240131621082  0.8334651213831228  0.8334651213831228
  0.8334651213831228  0.0000240131621082  0.8334651213831228
  0.8334651213831228  0.8334651213831228  0.0000240131621082
  0.9999759868378918  0.8334651213831228  0.1665348786168771
  0.8334651213831228  0.9999759868378918  0.1665348786168771
  0.9999759868378918  0.1665348786168771  0.8334651213831228
  0.8334651213831228  0.1665348786168771  0.9999759868378918
  0.1665348786168771  0.9999759868378918  0.8334651213831228
  0.1665348786168771  0.8334651213831228  0.9999759868378918
  0.0000240131621082  0.1665348786168771  0.1665348786168771
  0.1665348786168771  0.0000240131621082  0.1665348786168771
  0.1665348786168771  0.1665348786168771  0.0000240131621082
 -0.0000000000000000 -0.0000000000000000  0.6669634193339492
 -0.0000000000000000  0.6669634193339492 -0.0000000000000000
  0.6669634193339492 -0.0000000000000000 -0.0000000000000000
 -0.0000000000000000 -0.0000000000000000  0.3330365806660508
 -0.0000000000000000  0.3330365806660508 -0.0000000000000000
  0.3330365806660508 -0.0000000000000000 -0.0000000000000000
 -0.0000000000000000 -0.0000000000000000 -0.0000000000000000
 
  0.00000000E+00  0.00000000E+00  0.00000000E+00
  0.00000000E+00  0.00000000E+00  0.00000000E+00
  0.00000000E+00  0.00000000E+00  0.00000000E+00
  0.00000000E+00  0.00000000E+00  0.00000000E+00
  0.00000000E+00  0.00000000E+00  0.00000000E+00
  0.00000000E+00  0.00000000E+00  0.00000000E+00
  0.00000000E+00  0.00000000E+00  0.00000000E+00
  0.00000000E+00  0.00000000E+00  0.00000000E+00
  0.00000000E+00  0.00000000E+00  0.00000000E+00
  0.00000000E+00  0.00000000E+00  0.00000000E+00
  0.00000000E+00  0.00000000E+00  0.00000000E+00
  0.00000000E+00  0.00000000E+00  0.00000000E+00
  0.00000000E+00  0.00000000E+00  0.00000000E+00
  0.00000000E+00  0.00000000E+00  0.00000000E+00
  0.00000000E+00  0.00000000E+00  0.00000000E+00
  0.00000000E+00  0.00000000E+00  0.00000000E+00
  0.00000000E+00  0.00000000E+00  0.00000000E+00
  0.00000000E+00  0.00000000E+00  0.00000000E+00
  0.00000000E+00  0.00000000E+00  0.00000000E+00
  0.00000000E+00  0.00000000E+00  0.00000000E+00
  0.00000000E+00  0.00000000E+00  0.00000000E+00
  0.00000000E+00  0.00000000E+00  0.00000000E+00
  0.00000000E+00  0.00000000E+00  0.00000000E+00
  0.00000000E+00  0.00000000E+00  0.00000000E+00
  0.00000000E+00  0.00000000E+00  0.00000000E+00
  0.00000000E+00  0.00000000E+00  0.00000000E+00
  0.00000000E+00  0.00000000E+00  0.00000000E+00
  0.00000000E+00  0.00000000E+00  0.00000000E+00
  0.00000000E+00  0.00000000E+00  0.00000000E+00
  0.00000000E+00  0.00000000E+00  0.00000000E+00
  0.00000000E+00  0.00000000E+00  0.00000000E+00
  0.00000000E+00  0.00000000E+00  0.00000000E+00
  0.00000000E+00  0.00000000E+00  0.00000000E+00
  0.00000000E+00  0.00000000E+00  0.00000000E+00
  0.00000000E+00  0.00000000E+00  0.00000000E+00
  0.00000000E+00  0.00000000E+00  0.00000000E+00
  0.00000000E+00  0.00000000E+00  0.00000000E+00
  0.00000000E+00  0.00000000E+00  0.00000000E+00
  0.00000000E+00  0.00000000E+00  0.00000000E+00
  0.00000000E+00  0.00000000E+00  0.00000000E+00
  0.00000000E+00  0.00000000E+00  0.00000000E+00
  0.00000000E+00  0.00000000E+00  0.00000000E+00
  0.00000000E+00  0.00000000E+00  0.00000000E+00
  0.00000000E+00  0.00000000E+00  0.00000000E+00
  0.00000000E+00  0.00000000E+00  0.00000000E+00
  0.00000000E+00  0.00000000E+00  0.00000000E+00
  0.00000000E+00  0.00000000E+00  0.00000000E+00
  0.00000000E+00  0.00000000E+00  0.00000000E+00
  0.00000000E+00  0.00000000E+00  0.00000000E+00
  0.00000000E+00  0.00000000E+00  0.00000000E+00
  0.00000000E+00  0.00000000E+00  0.00000000E+00
  0.00000000E+00  0.00000000E+00  0.00000000E+00
  0.00000000E+00  0.00000000E+00  0.00000000E+00
  0.00000000E+00  0.00000000E+00  0.00000000E+00
  0.00000000E+00  0.00000000E+00  0.00000000E+00
  0.00000000E+00  0.00000000E+00  0.00000000E+00
  0.00000000E+00  0.00000000E+00  0.00000000E+00
  0.00000000E+00  0.00000000E+00  0.00000000E+00
  0.00000000E+00  0.00000000E+00  0.00000000E+00
  0.00000000E+00  0.00000000E+00  0.00000000E+00
  0.00000000E+00  0.00000000E+00  0.00000000E+00
  0.00000000E+00  0.00000000E+00  0.00000000E+00
  0.00000000E+00  0.00000000E+00  0.00000000E+00
  0.00000000E+00  0.00000000E+00  0.00000000E+00
  0.00000000E+00  0.00000000E+00  0.00000000E+00
  0.00000000E+00  0.00000000E+00  0.00000000E+00
  0.00000000E+00  0.00000000E+00  0.00000000E+00
  0.00000000E+00  0.00000000E+00  0.00000000E+00
  0.00000000E+00  0.00000000E+00  0.00000000E+00
  0.00000000E+00  0.00000000E+00  0.00000000E+00
  0.00000000E+00  0.00000000E+00  0.00000000E+00
  0.00000000E+00  0.00000000E+00  0.00000000E+00
  0.00000000E+00  0.00000000E+00  0.00000000E+00
  0.00000000E+00  0.00000000E+00  0.00000000E+00
  0.00000000E+00  0.00000000E+00  0.00000000E+00
  0.00000000E+00  0.00000000E+00  0.00000000E+00
  0.00000000E+00  0.00000000E+00  0.00000000E+00
  0.00000000E+00  0.00000000E+00  0.00000000E+00
  0.00000000E+00  0.00000000E+00  0.00000000E+00
  0.00000000E+00  0.00000000E+00  0.00000000E+00
  0.00000000E+00  0.00000000E+00  0.00000000E+00
  0.00000000E+00  0.00000000E+00  0.00000000E+00
  0.00000000E+00  0.00000000E+00  0.00000000E+00
  0.00000000E+00  0.00000000E+00  0.00000000E+00
  0.00000000E+00  0.00000000E+00  0.00000000E+00
  0.00000000E+00  0.00000000E+00  0.00000000E+00
  0.00000000E+00  0.00000000E+00  0.00000000E+00
  0.00000000E+00  0.00000000E+00  0.00000000E+00
  0.00000000E+00  0.00000000E+00  0.00000000E+00
  0.00000000E+00  0.00000000E+00  0.00000000E+00
  0.00000000E+00  0.00000000E+00  0.00000000E+00
  0.00000000E+00  0.00000000E+00  0.00000000E+00
  0.00000000E+00  0.00000000E+00  0.00000000E+00
  0.00000000E+00  0.00000000E+00  0.00000000E+00
  0.00000000E+00  0.00000000E+00  0.00000000E+00
  0.00000000E+00  0.00000000E+00  0.00000000E+00
  0.00000000E+00  0.00000000E+00  0.00000000E+00
  0.00000000E+00  0.00000000E+00  0.00000000E+00
  0.00000000E+00  0.00000000E+00  0.00000000E+00
  0.00000000E+00  0.00000000E+00  0.00000000E+00
  0.00000000E+00  0.00000000E+00  0.00000000E+00
  0.00000000E+00  0.00000000E+00  0.00000000E+00
  0.00000000E+00  0.00000000E+00  0.00000000E+00
  0.00000000E+00  0.00000000E+00  0.00000000E+00
  0.00000000E+00  0.00000000E+00  0.00000000E+00
  0.00000000E+00  0.00000000E+00  0.00000000E+00
  0.00000000E+00  0.00000000E+00  0.00000000E+00
  0.00000000E+00  0.00000000E+00  0.00000000E+00
  0.00000000E+00  0.00000000E+00  0.00000000E+00
  0.00000000E+00  0.00000000E+00  0.00000000E+00
  0.00000000E+00  0.00000000E+00  0.00000000E+00
  0.00000000E+00  0.00000000E+00  0.00000000E+00
  0.00000000E+00  0.00000000E+00  0.00000000E+00
  0.00000000E+00  0.00000000E+00  0.00000000E+00
  0.00000000E+00  0.00000000E+00  0.00000000E+00
  0.00000000E+00  0.00000000E+00  0.00000000E+00
  0.00000000E+00  0.00000000E+00  0.00000000E+00
  0.00000000E+00  0.00000000E+00  0.00000000E+00
  0.00000000E+00  0.00000000E+00  0.00000000E+00
  0.00000000E+00  0.00000000E+00  0.00000000E+00
  0.00000000E+00  0.00000000E+00  0.00000000E+00
  0.00000000E+00  0.00000000E+00  0.00000000E+00
  0.00000000E+00  0.00000000E+00  0.00000000E+00
  0.00000000E+00  0.00000000E+00  0.00000000E+00
  0.00000000E+00  0.00000000E+00  0.00000000E+00
  0.00000000E+00  0.00000000E+00  0.00000000E+00
  0.00000000E+00  0.00000000E+00  0.00000000E+00
  0.00000000E+00  0.00000000E+00  0.00000000E+00
  0.00000000E+00  0.00000000E+00  0.00000000E+00
  0.00000000E+00  0.00000000E+00  0.00000000E+00
  0.00000000E+00  0.00000000E+00  0.00000000E+00
  0.00000000E+00  0.00000000E+00  0.00000000E+00
  0.00000000E+00  0.00000000E+00  0.00000000E+00
  0.00000000E+00  0.00000000E+00  0.00000000E+00
  0.00000000E+00  0.00000000E+00  0.00000000E+00
  0.00000000E+00  0.00000000E+00  0.00000000E+00
  0.00000000E+00  0.00000000E+00  0.00000000E+00
  0.00000000E+00  0.00000000E+00  0.00000000E+00
  0.00000000E+00  0.00000000E+00  0.00000000E+00
  0.00000000E+00  0.00000000E+00  0.00000000E+00
  0.00000000E+00  0.00000000E+00  0.00000000E+00
  0.00000000E+00  0.00000000E+00  0.00000000E+00
  0.00000000E+00  0.00000000E+00  0.00000000E+00
  0.00000000E+00  0.00000000E+00  0.00000000E+00
  0.00000000E+00  0.00000000E+00  0.00000000E+00
  0.00000000E+00  0.00000000E+00  0.00000000E+00
  0.00000000E+00  0.00000000E+00  0.00000000E+00
  0.00000000E+00  0.00000000E+00  0.00000000E+00
  0.00000000E+00  0.00000000E+00  0.00000000E+00
  0.00000000E+00  0.00000000E+00  0.00000000E+00
  0.00000000E+00  0.00000000E+00  0.00000000E+00
  0.00000000E+00  0.00000000E+00  0.00000000E+00
  0.00000000E+00  0.00000000E+00  0.00000000E+00
  0.00000000E+00  0.00000000E+00  0.00000000E+00
  0.00000000E+00  0.00000000E+00  0.00000000E+00
  0.00000000E+00  0.00000000E+00  0.00000000E+00
  0.00000000E+00  0.00000000E+00  0.00000000E+00
  0.00000000E+00  0.00000000E+00  0.00000000E+00
  0.00000000E+00  0.00000000E+00  0.00000000E+00
  0.00000000E+00  0.00000000E+00  0.00000000E+00
  0.00000000E+00  0.00000000E+00  0.00000000E+00
  0.00000000E+00  0.00000000E+00  0.00000000E+00
  0.00000000E+00  0.00000000E+00  0.00000000E+00
  0.00000000E+00  0.00000000E+00  0.00000000E+00
  0.00000000E+00  0.00000000E+00  0.00000000E+00
  0.00000000E+00  0.00000000E+00  0.00000000E+00
  0.00000000E+00  0.00000000E+00  0.00000000E+00
  0.00000000E+00  0.00000000E+00  0.00000000E+00
  0.00000000E+00  0.00000000E+00  0.00000000E+00
  0.00000000E+00  0.00000000E+00  0.00000000E+00
  0.00000000E+00  0.00000000E+00  0.00000000E+00
  0.00000000E+00  0.00000000E+00  0.00000000E+00
  0.00000000E+00  0.00000000E+00  0.00000000E+00
  0.00000000E+00  0.00000000E+00  0.00000000E+00
  0.00000000E+00  0.00000000E+00  0.00000000E+00
  0.00000000E+00  0.00000000E+00  0.00000000E+00
  0.00000000E+00  0.00000000E+00  0.00000000E+00
  0.00000000E+00  0.00000000E+00  0.00000000E+00
  0.00000000E+00  0.00000000E+00  0.00000000E+00
  0.00000000E+00  0.00000000E+00  0.00000000E+00
  0.00000000E+00  0.00000000E+00  0.00000000E+00
  0.00000000E+00  0.00000000E+00  0.00000000E+00
  0.00000000E+00  0.00000000E+00  0.00000000E+00
  0.00000000E+00  0.00000000E+00  0.00000000E+00
  0.00000000E+00  0.00000000E+00  0.00000000E+00
  0.00000000E+00  0.00000000E+00  0.00000000E+00
  0.00000000E+00  0.00000000E+00  0.00000000E+00
  0.00000000E+00  0.00000000E+00  0.00000000E+00
  0.00000000E+00  0.00000000E+00  0.00000000E+00
  0.00000000E+00  0.00000000E+00  0.00000000E+00
  0.00000000E+00  0.00000000E+00  0.00000000E+00
  0.00000000E+00  0.00000000E+00  0.00000000E+00
  0.00000000E+00  0.00000000E+00  0.00000000E+00
  0.00000000E+00  0.00000000E+00  0.00000000E+00
  0.00000000E+00  0.00000000E+00  0.00000000E+00
  0.00000000E+00  0.00000000E+00  0.00000000E+00
  0.00000000E+00  0.00000000E+00  0.00000000E+00
  0.00000000E+00  0.00000000E+00  0.00000000E+00
  0.00000000E+00  0.00000000E+00  0.00000000E+00
  0.00000000E+00  0.00000000E+00  0.00000000E+00
  0.00000000E+00  0.00000000E+00  0.00000000E+00
  0.00000000E+00  0.00000000E+00  0.00000000E+00
  0.00000000E+00  0.00000000E+00  0.00000000E+00
  0.00000000E+00  0.00000000E+00  0.00000000E+00
  0.00000000E+00  0.00000000E+00  0.00000000E+00
  0.00000000E+00  0.00000000E+00  0.00000000E+00
  0.00000000E+00  0.00000000E+00  0.00000000E+00
  0.00000000E+00  0.00000000E+00  0.00000000E+00
  0.00000000E+00  0.00000000E+00  0.00000000E+00
  0.00000000E+00  0.00000000E+00  0.00000000E+00
  0.00000000E+00  0.00000000E+00  0.00000000E+00
  0.00000000E+00  0.00000000E+00  0.00000000E+00
  0.00000000E+00  0.00000000E+00  0.00000000E+00
  0.00000000E+00  0.00000000E+00  0.00000000E+00
  0.00000000E+00  0.00000000E+00  0.00000000E+00
  0.00000000E+00  0.00000000E+00  0.00000000E+00
  0.00000000E+00  0.00000000E+00  0.00000000E+00
