Initial State for  iIn_0_110pCs_tdA_sc3k
   1.00000000000000     
    17.5612749176088023    0.0000000000000000    0.0000000000000000
     0.0000000000000000   17.5612749176088023    0.0000000000000000
     0.0000000000000000    0.0000000000000000   17.5612749176088023
   In   P 
   108   109
Direct
0.5867019393	0.5867019393	0.5867019393
0.5867019393	0.4132980607	0.4132980607
0.4132980607	0.5867019393	0.4132980607
0.4132980607	0.4132980607	0.5867019393
0.7521179367	0.5841546057	0.4158453943
0.7521179367	0.4158453943	0.5841546057
0.5841546057	0.7521179367	0.4158453943
0.5841546057	0.4158453943	0.7521179367
0.4158453943	0.7521179367	0.5841546057
0.4158453943	0.5841546057	0.7521179367
0.5841546057	0.5841546057	0.2478820633
0.5841546057	0.2478820633	0.5841546057
0.2478820633	0.5841546057	0.5841546057
0.4158453943	0.4158453943	0.2478820633
0.4158453943	0.2478820633	0.4158453943
0.2478820633	0.4158453943	0.4158453943
0.7513664075	0.7513664075	0.5829914676
0.7513664075	0.5829914676	0.7513664075
0.5829914676	0.7513664075	0.7513664075
0.7513664075	0.4170085324	0.2486335925
0.7513664075	0.2486335925	0.4170085324
0.4170085324	0.7513664075	0.2486335925
0.2486335925	0.7513664075	0.4170085324
0.4170085324	0.2486335925	0.7513664075
0.2486335925	0.4170085324	0.7513664075
0.5829914676	0.2486335925	0.2486335925
0.2486335925	0.5829914676	0.2486335925
0.2486335925	0.2486335925	0.5829914676
0.916820331	0.5834371128	0.5834371128
0.5834371128	0.916820331	0.5834371128
0.5834371128	0.5834371128	0.916820331
0.916820331	0.4165628872	0.4165628872
0.7499934558	0.7499934558	0.2500065442
0.7499934558	0.2500065442	0.7499934558
0.4165628872	0.916820331	0.4165628872
0.4165628872	0.4165628872	0.916820331
0.2500065442	0.7499934558	0.7499934558
0.5834371128	0.4165628872	0.083179669
0.4165628872	0.5834371128	0.083179669
0.5834371128	0.083179669	0.4165628872
0.4165628872	0.083179669	0.5834371128
0.083179669	0.5834371128	0.4165628872
0.083179669	0.4165628872	0.5834371128
0.2500065442	0.2500065442	0.2500065442
0.9171186496	0.750638754	0.4164555859
0.750638754	0.9171186496	0.4164555859
0.9171186496	0.4164555859	0.750638754
0.750638754	0.4164555859	0.9171186496
0.4164555859	0.9171186496	0.750638754
0.4164555859	0.750638754	0.9171186496
0.9171186496	0.5835444141	0.249361246
0.9171186496	0.249361246	0.5835444141
0.5835444141	0.9171186496	0.249361246
0.5835444141	0.249361246	0.9171186496
0.249361246	0.9171186496	0.5835444141
0.249361246	0.5835444141	0.9171186496
0.750638754	0.5835444141	0.0828813504
0.5835444141	0.750638754	0.0828813504
0.750638754	0.0828813504	0.5835444141
0.5835444141	0.0828813504	0.750638754
0.0828813504	0.750638754	0.5835444141
0.0828813504	0.5835444141	0.750638754
0.4164555859	0.249361246	0.0828813504
0.4164555859	0.0828813504	0.249361246
0.249361246	0.4164555859	0.0828813504
0.249361246	0.0828813504	0.4164555859
0.0828813504	0.4164555859	0.249361246
0.0828813504	0.249361246	0.4164555859
0.9169541522	0.7501639267	0.7501639267
0.7501639267	0.9169541522	0.7501639267
0.7501639267	0.7501639267	0.9169541522
0.9169541522	0.2498360733	0.2498360733
0.2498360733	0.9169541522	0.2498360733
0.2498360733	0.2498360733	0.9169541522
0.7501639267	0.2498360733	0.0830458478
0.7501639267	0.0830458478	0.2498360733
0.2498360733	0.7501639267	0.0830458478
0.0830458478	0.7501639267	0.2498360733
0.2498360733	0.0830458478	0.7501639267
0.0830458478	0.2498360733	0.7501639267
0.9170270826	0.9170270826	0.5833555142
0.9170270826	0.5833555142	0.9170270826
0.5833555142	0.9170270826	0.9170270826
0.9170270826	0.4166444858	0.0829729174
0.9170270826	0.0829729174	0.4166444858
0.4166444858	0.9170270826	0.0829729174
0.0829729174	0.9170270826	0.4166444858
0.4166444858	0.0829729174	0.9170270826
0.0829729174	0.4166444858	0.9170270826
0.5833555142	0.0829729174	0.0829729174
0.0829729174	0.5833555142	0.0829729174
0.0829729174	0.0829729174	0.5833555142
0.9166885512	0.9166885512	0.2498147577
0.9166885512	0.2498147577	0.9166885512
0.9166885512	0.7501852423	0.0833114488
0.7501852423	0.9166885512	0.0833114488
0.2498147577	0.9166885512	0.9166885512
0.9166885512	0.0833114488	0.7501852423
0.7501852423	0.0833114488	0.9166885512
0.0833114488	0.9166885512	0.7501852423
0.0833114488	0.7501852423	0.9166885512
0.2498147577	0.0833114488	0.0833114488
0.0833114488	0.2498147577	0.0833114488
0.0833114488	0.0833114488	0.2498147577
0.9167171454	0.9167171454	0.9167171454
0.9167171454	0.0832828546	0.0832828546
0.0832828546	0.9167171454	0.0832828546
0.0832828546	0.0832828546	0.9167171454
0.5	0.5	0.5
0.671278786	0.5	0.5
0.5	0.671278786	0.5
0.5	0.5	0.671278786
0.5	0.5	0.328721214
0.5	0.328721214	0.5
0.328721214	0.5	0.5
0.6693567489	0.6693567489	0.6693567489
0.6667520507	0.6667520507	0.3332479493
0.6667520507	0.3332479493	0.6667520507
0.3332479493	0.6667520507	0.6667520507
0.6693567489	0.3306432511	0.3306432511
0.3306432511	0.6693567489	0.3306432511
0.3306432511	0.3306432511	0.6693567489
0.3332479493	0.3332479493	0.3332479493
0.8342802146	0.6674894486	0.5000541335
0.8342802146	0.5000541335	0.6674894486
0.6674894486	0.8342802146	0.5000541335
0.6674894486	0.5000541335	0.8342802146
0.5000541335	0.8342802146	0.6674894486
0.5000541335	0.6674894486	0.8342802146
0.8342802146	0.4999458665	0.3325105514
0.8342802146	0.3325105514	0.4999458665
0.4999458665	0.8342802146	0.3325105514
0.3325105514	0.8342802146	0.4999458665
0.4999458665	0.3325105514	0.8342802146
0.3325105514	0.4999458665	0.8342802146
0.6674894486	0.4999458665	0.1657197854
0.4999458665	0.6674894486	0.1657197854
0.6674894486	0.1657197854	0.4999458665
0.4999458665	0.1657197854	0.6674894486
0.1657197854	0.6674894486	0.4999458665
0.1657197854	0.4999458665	0.6674894486
0.5000541335	0.3325105514	0.1657197854
0.5000541335	0.1657197854	0.3325105514
0.3325105514	0.5000541335	0.1657197854
0.3325105514	0.1657197854	0.5000541335
0.1657197854	0.5000541335	0.3325105514
0.1657197854	0.3325105514	0.5000541335
0.8340079028	0.8340079028	0.6670846498
0.8340079028	0.6670846498	0.8340079028
0.6670846498	0.8340079028	0.8340079028
1	0.5	0.5
0.8334328577	0.8334328577	0.3330989794
0.8334328577	0.3330989794	0.8334328577
0.5	1	0.5
0.5	0.5	1
0.3330989794	0.8334328577	0.8334328577
0.8334328577	0.6669010206	0.1665671423
0.6669010206	0.8334328577	0.1665671423
0.8334328577	0.1665671423	0.6669010206
0.6669010206	0.1665671423	0.8334328577
0.1665671423	0.8334328577	0.6669010206
0.8340079028	0.3329153502	0.1659920972
0.1665671423	0.6669010206	0.8334328577
0.8340079028	0.1659920972	0.3329153502
0.3329153502	0.8340079028	0.1659920972
0.1659920972	0.8340079028	0.3329153502
0.3329153502	0.1659920972	0.8340079028
0.1659920972	0.3329153502	0.8340079028
0.6670846498	0.1659920972	0.1659920972
0.1659920972	0.6670846498	0.1659920972
0.1659920972	0.1659920972	0.6670846498
0.3330989794	0.1665671423	0.1665671423
0.1665671423	0.3330989794	0.1665671423
0.1665671423	0.1665671423	0.3330989794
1.0000288521	0.6667967483	0.6667967483
0.6667967483	1.0000288521	0.6667967483
0.6667967483	0.6667967483	1.0000288521
0.9999711479	0.6667967483	0.3332032517
0.9999711479	0.3332032517	0.6667967483
0.6667967483	0.9999711479	0.3332032517
0.6667967483	0.3332032517	0.9999711479
0.3332032517	0.9999711479	0.6667967483
1.0000288521	0.3332032517	0.3332032517
0.3332032517	0.6667967483	0.9999711479
0.3332032517	1.0000288521	0.3332032517
0.3332032517	0.3332032517	1.0000288521
1	0.8337824622	0.5
0.8337824622	1	0.5
1	0.5	0.8337824622
0.8337824622	0.5	1
0.5	1	0.8337824622
0.5	0.8337824622	1
1	0.5	0.1662175378
1	0.1662175378	0.5
0.5	1	0.1662175378
0.1662175378	1	0.5
0.5	0.1662175378	1
0.1662175378	0.5	1
1.0000588395	0.8334862957	0.8334862957
0.8334862957	1.0000588395	0.8334862957
0.8334862957	0.8334862957	1.0000588395
0.9999411605	0.8334862957	0.1665137043
0.8334862957	0.9999411605	0.1665137043
0.9999411605	0.1665137043	0.8334862957
0.8334862957	0.1665137043	0.9999411605
0.1665137043	0.9999411605	0.8334862957
0.1665137043	0.8334862957	0.9999411605
1.0000588395	0.1665137043	0.1665137043
0.1665137043	1.0000588395	0.1665137043
0.1665137043	0.1665137043	1.0000588395
1	1	0.6669946965
1	0.6669946965	1
0.6669946965	1	1
1	1	0.3330053035
1	0.3330053035	1
0.3330053035	1	1
1	1	1
