POSCAR file written by OVITO            
   1.00000000000000     
    11.7075166100000008    0.0000000000000000    0.0000000000000000
     0.0000000000000000   11.7075166100000008    0.0000000000000000
     0.0000000000000000    0.0000000000000000   11.7075166100000008
   In   P 
    32    32
Direct
  0.7572503130177718  0.7572503130177718  0.7572503130177718
  0.8811831111319336  0.6229899859424612  0.6229899859424612
  0.6229899859424612  0.8811831111319336  0.6229899859424612
  0.6229899859424612  0.6229899859424612  0.8811831111319336
  0.1210460483988638  0.8704123506640635  0.6274597993248285
  0.1210460483988638  0.6274597993248285  0.8704123506640635
  0.8704123506640635  0.1210460483988638  0.6274597993248285
  0.8704123506640635  0.6274597993248285  0.1210460483988638
  0.6274597993248285  0.1210460483988638  0.8704123506640635
  0.6274597993248285  0.8704123506640635  0.1210460483988638
  0.8751802549769185  0.8751802549769185  0.3761387770545891
  0.8751802549769185  0.3761387770545891  0.8751802549769185
  0.3761387770545891  0.8751802549769185  0.8751802549769185
  0.6243667400618518  0.6243667400618518  0.3764128074141361
  0.6243667400618518  0.3764128074141361  0.6243667400618518
  0.3764128074141361  0.6243667400618518  0.6243667400618518
  0.1247093982384866  0.1247093982384866  0.8794884112731216
  0.1247093982384866  0.8794884112731216  0.1247093982384866
  0.8794884112731216  0.1247093982384866  0.1247093982384866
  0.1268616907462427  0.6249936404126183  0.3726620845336195
  0.1268616907462427  0.3726620845336195  0.6249936404126183
  0.6249936404126183  0.1268616907462427  0.3726620845336195
  0.3726620845336195  0.1268616907462427  0.6249936404126183
  0.6249936404126183  0.3726620845336195  0.1268616907462427
  0.3726620845336195  0.6249936404126183  0.1268616907462427
  0.8746964430927738  0.3733895602954601  0.3733895602954601
  0.3733895602954601  0.8746964430927738  0.3733895602954601
  0.3733895602954601  0.3733895602954601  0.8746964430927738
  0.1254821381752148  0.1254821381752148  0.3766495323434479
  0.1254821381752148  0.3766495323434479  0.1254821381752148
  0.3766495323434479  0.1254821381752148  0.1254821381752148
  0.3753568354212134  0.3753568354212134  0.3753568354212134
  0.8807178780238177  0.8807178780238177  0.8807178780238177
  0.9915009138423750  0.9915009138423750  0.7664876648635816
  0.9915009138423750  0.7664876648635816  0.9915009138423750
  0.7664876648635816  0.9915009138423750  0.9915009138423750
  0.0027209903397185  0.7483544980492806  0.4955892761200286
  0.0027209903397185  0.4955892761200286  0.7483544980492806
  0.7483544980492806  0.0027209903397185  0.4955892761200286
  0.7483544980492806  0.4955892761200286  0.0027209903397185
  0.4955892761200286  0.0027209903397185  0.7483544980492806
  0.4955892761200286  0.7483544980492806  0.0027209903397185
  0.7518286289390851  0.4987551285321400  0.4987551285321400
  0.4987551285321400  0.7518286289390851  0.4987551285321400
  0.4987551285321400  0.4987551285321400  0.7518286289390851
  0.2510914881651083  0.7500921599210223  0.7500921599210223
  0.7500921599210223  0.2510914881651083  0.7500921599210223
  0.7500921599210223  0.7500921599210223  0.2510914881651083
  0.2520076770664034  0.0006263834882825  0.0006263834882825
  0.0006263834882825  0.2520076770664034  0.0006263834882825
  0.0006263834882825  0.0006263834882825  0.2520076770664034
  0.2472765906499151  0.9989792074950917  0.5029207585347474
  0.9989792074950917  0.2472765906499151  0.5029207585347474
  0.2472765906499151  0.5029207585347474  0.9989792074950917
  0.9989792074950917  0.5029207585347474  0.2472765906499151
  0.5029207585347474  0.2472765906499151  0.9989792074950917
  0.5029207585347474  0.9989792074950917  0.2472765906499151
  0.2497167703018000  0.4997213588731519  0.4997213588731519
  0.4997213588731519  0.2497167703018000  0.4997213588731519
  0.4997213588731519  0.4997213588731519  0.2497167703018000
  0.2472965700290469  0.2472965700290469  0.7511779603040863
  0.2472965700290469  0.7511779603040863  0.2472965700290469
  0.7511779603040863  0.2472965700290469  0.2472965700290469
  0.2502132601447338  0.2502132601447338  0.2502132601447338
 
  0.00000000E+00  0.00000000E+00  0.00000000E+00
  0.00000000E+00  0.00000000E+00  0.00000000E+00
  0.00000000E+00  0.00000000E+00  0.00000000E+00
  0.00000000E+00  0.00000000E+00  0.00000000E+00
  0.00000000E+00  0.00000000E+00  0.00000000E+00
  0.00000000E+00  0.00000000E+00  0.00000000E+00
  0.00000000E+00  0.00000000E+00  0.00000000E+00
  0.00000000E+00  0.00000000E+00  0.00000000E+00
  0.00000000E+00  0.00000000E+00  0.00000000E+00
  0.00000000E+00  0.00000000E+00  0.00000000E+00
  0.00000000E+00  0.00000000E+00  0.00000000E+00
  0.00000000E+00  0.00000000E+00  0.00000000E+00
  0.00000000E+00  0.00000000E+00  0.00000000E+00
  0.00000000E+00  0.00000000E+00  0.00000000E+00
  0.00000000E+00  0.00000000E+00  0.00000000E+00
  0.00000000E+00  0.00000000E+00  0.00000000E+00
  0.00000000E+00  0.00000000E+00  0.00000000E+00
  0.00000000E+00  0.00000000E+00  0.00000000E+00
  0.00000000E+00  0.00000000E+00  0.00000000E+00
  0.00000000E+00  0.00000000E+00  0.00000000E+00
  0.00000000E+00  0.00000000E+00  0.00000000E+00
  0.00000000E+00  0.00000000E+00  0.00000000E+00
  0.00000000E+00  0.00000000E+00  0.00000000E+00
  0.00000000E+00  0.00000000E+00  0.00000000E+00
  0.00000000E+00  0.00000000E+00  0.00000000E+00
  0.00000000E+00  0.00000000E+00  0.00000000E+00
  0.00000000E+00  0.00000000E+00  0.00000000E+00
  0.00000000E+00  0.00000000E+00  0.00000000E+00
  0.00000000E+00  0.00000000E+00  0.00000000E+00
  0.00000000E+00  0.00000000E+00  0.00000000E+00
  0.00000000E+00  0.00000000E+00  0.00000000E+00
  0.00000000E+00  0.00000000E+00  0.00000000E+00
  0.00000000E+00  0.00000000E+00  0.00000000E+00
  0.00000000E+00  0.00000000E+00  0.00000000E+00
  0.00000000E+00  0.00000000E+00  0.00000000E+00
  0.00000000E+00  0.00000000E+00  0.00000000E+00
  0.00000000E+00  0.00000000E+00  0.00000000E+00
  0.00000000E+00  0.00000000E+00  0.00000000E+00
  0.00000000E+00  0.00000000E+00  0.00000000E+00
  0.00000000E+00  0.00000000E+00  0.00000000E+00
  0.00000000E+00  0.00000000E+00  0.00000000E+00
  0.00000000E+00  0.00000000E+00  0.00000000E+00
  0.00000000E+00  0.00000000E+00  0.00000000E+00
  0.00000000E+00  0.00000000E+00  0.00000000E+00
  0.00000000E+00  0.00000000E+00  0.00000000E+00
  0.00000000E+00  0.00000000E+00  0.00000000E+00
  0.00000000E+00  0.00000000E+00  0.00000000E+00
  0.00000000E+00  0.00000000E+00  0.00000000E+00
  0.00000000E+00  0.00000000E+00  0.00000000E+00
  0.00000000E+00  0.00000000E+00  0.00000000E+00
  0.00000000E+00  0.00000000E+00  0.00000000E+00
  0.00000000E+00  0.00000000E+00  0.00000000E+00
  0.00000000E+00  0.00000000E+00  0.00000000E+00
  0.00000000E+00  0.00000000E+00  0.00000000E+00
  0.00000000E+00  0.00000000E+00  0.00000000E+00
  0.00000000E+00  0.00000000E+00  0.00000000E+00
  0.00000000E+00  0.00000000E+00  0.00000000E+00
  0.00000000E+00  0.00000000E+00  0.00000000E+00
  0.00000000E+00  0.00000000E+00  0.00000000E+00
  0.00000000E+00  0.00000000E+00  0.00000000E+00
  0.00000000E+00  0.00000000E+00  0.00000000E+00
  0.00000000E+00  0.00000000E+00  0.00000000E+00
  0.00000000E+00  0.00000000E+00  0.00000000E+00
  0.00000000E+00  0.00000000E+00  0.00000000E+00
