# simple test of uo2 with ACE product  

units		metal
atom_style	atomic

neighbor	0.3 bin
neigh_modify	 every 2 delay 10 check yes

read_data       UO2_ex.data

mass  1 15.999
mass  2 238.0 #289

#if you want ACE to control dynamics uncomment below
#pair_style hybrid/overlay pace product zbl 4.0 4.8
#pair_coeff  * * pace UO2_pot.yace O U
#pair_coeff  1 1 zbl 8 8
#pair_coeff  1 2 zbl 8 92
#pair_coeff  2 2 zbl 92 92

pair_style  pace product 
pair_coeff  * * UO2_pot.yace O U



minimize 1.0e-4 1.0e-6 100 1000

velocity        all create 200 8728 loop geom
timestep        0.00025
fix            1 all nve


thermo 		10

thermo_style    custom step temp pe ke etotal


dump            0 all cfg 100 ats.*.cfg mass type xs ys zs
dump_modify     0 element O U
run		1000
