Initial State for aP_0_C3vfar_tdC_sc3k2cl_d0lda.out_etbird
   1.00000000000000     
   17.5612749176088023  0.0000000000000000    0.0000000000000000
   0.0000000000000000   17.5612749176088023   0.0000000000000000
   0.0000000000000000   0.0000000000000000    17.5612749176088023
   In   P 
   107  109
Direct
0.4566264317	0.4566264317	0.4566264317
0.5718230052	0.5718230052	0.5718230052
0.5751983362	0.4213561683	0.4213561683
0.4213561683	0.5751983362	0.4213561683
0.4213561683	0.4213561683	0.5751983362
0.662044268	0.662044268	0.5073508291
0.662044268	0.5073508291	0.662044268
0.5073508291	0.662044268	0.662044268
0.6648775475	0.5039063589	0.3364590293
0.6648775475	0.3364590293	0.5039063589
0.5039063589	0.6648775475	0.3364590293
0.5039063589	0.3364590293	0.6648775475
0.3364590293	0.6648775475	0.5039063589
0.3364590293	0.5039063589	0.6648775475
0.4998649965	0.3321927992	0.3321927992
0.3321927992	0.4998649965	0.3321927992
0.3321927992	0.3321927992	0.4998649965
0.7491580361	0.5853244962	0.4192864173
0.7491580361	0.4192864173	0.5853244962
0.5853244962	0.7491580361	0.4192864173
0.5853244962	0.4192864173	0.7491580361
0.4192864173	0.7491580361	0.5853244962
0.4192864173	0.5853244962	0.7491580361
0.5830258916	0.5830258916	0.2489317228
0.5830258916	0.2489317228	0.5830258916
0.2489317228	0.5830258916	0.5830258916
0.4162345704	0.4162345704	0.2494097092
0.4162345704	0.2494097092	0.4162345704
0.2494097092	0.4162345704	0.4162345704
0.8328303957	0.4999247261	0.4999247261
0.4999247261	0.8328303957	0.4999247261
0.4999247261	0.4999247261	0.8328303957
0.4992331684	0.4992331684	0.1660411856
0.4992331684	0.1660411856	0.4992331684
0.1660411856	0.4992331684	0.4992331684
0.7493575046	0.7493575046	0.5835743382
0.7493575046	0.5835743382	0.7493575046
0.5835743382	0.7493575046	0.7493575046
0.7470670772	0.4174552816	0.2529384254
0.7470670772	0.2529384254	0.4174552816
0.4174552816	0.7470670772	0.2529384254
0.2529384254	0.7470670772	0.4174552816
0.4174552816	0.2529384254	0.7470670772
0.2529384254	0.4174552816	0.7470670772
0.5837046119	0.2493062005	0.2493062005
0.2493062005	0.5837046119	0.2493062005
0.2493062005	0.2493062005	0.5837046119
0.8330626864	0.6672080019	0.6672080019
0.6672080019	0.8330626864	0.6672080019
0.6672080019	0.6672080019	0.8330626864
0.8326524598	0.6665907615	0.3342299258
0.6665907615	0.8326524598	0.3342299258
0.8326524598	0.3342299258	0.6665907615
0.6665907615	0.3342299258	0.8326524598
0.3342299258	0.8326524598	0.6665907615
0.3342299258	0.6665907615	0.8326524598
0.8326688158	0.3339143501	0.3339143501
0.6670023688	0.6670023688	0.1664394768
0.6670023688	0.1664394768	0.6670023688
0.3339143501	0.8326688158	0.3339143501
0.3339143501	0.3339143501	0.8326688158
0.1664394768	0.6670023688	0.6670023688
0.6665580283	0.3337285191	0.1668278886
0.6665580283	0.1668278886	0.3337285191
0.3337285191	0.6665580283	0.1668278886
0.1668278886	0.6665580283	0.3337285191
0.3337285191	0.1668278886	0.6665580283
0.1668278886	0.3337285191	0.6665580283
0.3330429853	0.3330429853	0.166059886
0.3330429853	0.166059886	0.3330429853
0.166059886	0.3330429853	0.3330429853
0.9161671682	0.5834858119	0.5834858119
0.5834858119	0.9161671682	0.5834858119
0.5834858119	0.5834858119	0.9161671682
0.9166466913	0.4168242506	0.4168242506
0.749975717	0.749975717	0.2502531993
0.749975717	0.2502531993	0.749975717
0.4168242506	0.9166466913	0.4168242506
0.4168242506	0.4168242506	0.9166466913
0.2502531993	0.749975717	0.749975717
0.5834327989	0.4166904767	0.0830789693
0.4166904767	0.5834327989	0.0830789693
0.5834327989	0.0830789693	0.4166904767
0.4166904767	0.0830789693	0.5834327989
0.0830789693	0.5834327989	0.4166904767
0.0830789693	0.4166904767	0.5834327989
0.2498740728	0.2498740728	0.2498740728
0.8324884818	0.8324884818	0.5003583042
0.8324884818	0.5003583042	0.8324884818
0.5003583042	0.8324884818	0.8324884818
0.8318563152	0.4999616134	0.1682097173
0.8318563152	0.1682097173	0.4999616134
0.4999616134	0.8318563152	0.1682097173
0.4999616134	0.1682097173	0.8318563152
0.1682097173	0.8318563152	0.4999616134
0.1682097173	0.4999616134	0.8318563152
0.4996775513	0.1662819795	0.1662819795
0.1662819795	0.4996775513	0.1662819795
0.1662819795	0.1662819795	0.4996775513
0.9165469667	0.7500022895	0.416866175
0.7500022895	0.9165469667	0.416866175
0.9165469667	0.416866175	0.7500022895
0.7500022895	0.416866175	0.9165469667
0.416866175	0.9165469667	0.7500022895
0.416866175	0.7500022895	0.9165469667
0.916090428	0.5834093104	0.2504905464
0.916090428	0.2504905464	0.5834093104
0.5834093104	0.916090428	0.2504905464
0.5834093104	0.2504905464	0.916090428
0.2504905464	0.916090428	0.5834093104
0.2504905464	0.5834093104	0.916090428
0.7499135631	0.583175372	0.0834203533
0.583175372	0.7499135631	0.0834203533
0.7499135631	0.0834203533	0.583175372
0.583175372	0.0834203533	0.7499135631
0.0834203533	0.7499135631	0.583175372
0.0834203533	0.583175372	0.7499135631
0.41663194	0.2498501875	0.0829757738
0.41663194	0.0829757738	0.2498501875
0.2498501875	0.41663194	0.0829757738
0.2498501875	0.0829757738	0.41663194
0.0829757738	0.41663194	0.2498501875
0.0829757738	0.2498501875	0.41663194
0.9996169707	0.6665082653	0.500278372
0.9996169707	0.500278372	0.6665082653
0.6665082653	0.9996169707	0.500278372
0.500278372	0.9996169707	0.6665082653
0.6665082653	0.500278372	0.9996169707
0.500278372	0.6665082653	0.9996169707
0.9997868798	0.5000690055	0.3333110754
0.9997868798	0.3333110754	0.5000690055
0.5000690055	0.9997868798	0.3333110754
0.3333110754	0.9997868798	0.5000690055
0.5000690055	0.3333110754	0.9997868798
0.3333110754	0.5000690055	0.9997868798
0.9171626679	0.7502154675	0.7502154675
0.7502154675	0.9171626679	0.7502154675
0.7502154675	0.7502154675	0.9171626679
0.915927188	0.2503251836	0.2503251836
0.2503251836	0.915927188	0.2503251836
0.2503251836	0.2503251836	0.915927188
0.7498702097	0.2503687971	0.0834511996
0.7498702097	0.0834511996	0.2503687971
0.2503687971	0.7498702097	0.0834511996
0.0834511996	0.7498702097	0.2503687971
0.2503687971	0.0834511996	0.7498702097
0.0834511996	0.2503687971	0.7498702097
0.8334275004	0.8334275004	0.8334275004
0.83329309	0.83329309	0.1668549902
0.83329309	0.1668549902	0.83329309
0.1668549902	0.83329309	0.83329309
0.8330786253	0.1667138535	0.1667138535
0.1667138535	0.8330786253	0.1667138535
0.1667138535	0.1667138535	0.8330786253
0.1665833806	0.1665833806	0.1665833806
0.9163572472	0.9163572472	0.5831360701
0.9163572472	0.5831360701	0.9163572472
0.5831360701	0.9163572472	0.9163572472
0.9158471858	0.4170523133	0.0839591862
0.9158471858	0.0839591862	0.4170523133
0.4170523133	0.9158471858	0.0839591862
0.0839591862	0.9158471858	0.4170523133
0.4170523133	0.0839591862	0.9158471858
0.0839591862	0.4170523133	0.9158471858
0.5833143775	0.0831721144	0.0831721144
0.0831721144	0.5833143775	0.0831721144
0.0831721144	0.0831721144	0.5833143775
1.000124629	0.8335288138	0.6665677963
1.000124629	0.6665677963	0.8335288138
0.8335288138	1.000124629	0.6665677963
0.8335288138	0.6665677963	1.000124629
0.6665677963	1.000124629	0.8335288138
0.6665677963	0.8335288138	1.000124629
0.9999418924	0.8332272331	0.3335798154
0.8332272331	0.9999418924	0.3335798154
0.9999418924	0.3335798154	0.8332272331
0.8332272331	0.3335798154	0.9999418924
0.9998708703	0.6664276665	0.1669971369
0.3335798154	0.9999418924	0.8332272331
0.3335798154	0.8332272331	0.9999418924
0.6664276665	0.9998708703	0.1669971369
0.9998708703	0.1669971369	0.6664276665
0.6664276665	0.1669971369	0.9998708703
0.999495505	0.3333576705	0.1666171884
0.1669971369	0.9998708703	0.6664276665
0.999495505	0.1666171884	0.3333576705
0.1669971369	0.6664276665	0.9998708703
0.3333576705	0.999495505	0.1666171884
0.1666171884	0.999495505	0.3333576705
0.3333576705	0.1666171884	0.999495505
0.1666171884	0.3333576705	0.999495505
0.9167008697	0.9167008697	0.2502053722
0.9167008697	0.2502053722	0.9167008697
0.9167981626	0.7499571478	0.0835956126
0.2502053722	0.9167008697	0.9167008697
0.7499571478	0.9167981626	0.0835956126
0.9167981626	0.0835956126	0.7499571478
0.7499571478	0.0835956126	0.9167981626
0.0835956126	0.9167981626	0.7499571478
0.0835956126	0.7499571478	0.9167981626
0.250137728	0.0832521841	0.0832521841
0.0832521841	0.250137728	0.0832521841
0.0832521841	0.0832521841	0.250137728
0.9997535149	0.9997535149	0.4999735344
0.9997535149	0.4999735344	0.9997535149
0.4999735344	0.9997535149	0.9997535149
0.9168016801	0.9168016801	0.9168016801
0.9166169132	0.083446815	0.083446815
0.083446815	0.9166169132	0.083446815
0.083446815	0.083446815	0.9166169132
1.0000710596	1.0000710596	0.8332632262
1.0000710596	0.8332632262	1.0000710596
0.8332632262	1.0000710596	1.0000710596
0.9999664005	0.9999664005	0.1667072746
0.9999664005	0.1667072746	0.9999664005
0.1667072746	0.9999664005	0.9999664005
