# FitSNAP generated Hash: 0cd19ce6ea5feaba1516aa73a3ee82e4
pair_style hybrid/overlay zbl 4.0 4.8 mliap model mliappy ../FitTorch_Pytorch.pt descriptor sna ../Ta_pot.mliap.descriptor
pair_coeff * * zbl 73 73
pair_coeff * * mliap Ta
