Initial State for  aa_0_C3v_tdA_sc3k2cl_
   1.00000000000000     
    17.5612749176088023    0.0000000000000000    0.0000000000000000
     0.0000000000000000   17.5612749176088023    0.0000000000000000
     0.0000000000000000    0.0000000000000000   17.5612749176088023
   In   P 
   107   109
Direct
  0.6654935590812254  0.6654935590812254  0.4996977963848518
  0.6654935590812254  0.4996977963848518  0.6654935590812254
  0.4996977963848518  0.6654935590812254  0.6654935590812254
  0.6654935590812254  0.5003022036151482  0.3345064409187746
  0.6654935590812254  0.3345064409187746  0.5003022036151482
  0.5003022036151482  0.6654935590812254  0.3345064409187746
  0.5003022036151482  0.3345064409187746  0.6654935590812254
  0.3345064409187746  0.6654935590812254  0.5003022036151482
  0.3345064409187746  0.5003022036151482  0.6654935590812254
  0.4996977963848518  0.3345064409187746  0.3345064409187746
  0.3345064409187746  0.4996977963848518  0.3345064409187746
  0.3345064409187746  0.3345064409187746  0.4996977963848518
  0.8336393905187118  0.5000000000000000  0.5000000000000000
  0.5000000000000000  0.8336393905187118  0.5000000000000000
  0.5000000000000000  0.5000000000000000  0.8336393905187118
  0.5000000000000000  0.5000000000000000  0.1663606094812881
  0.5000000000000000  0.1663606094812881  0.5000000000000000
  0.1663606094812881  0.5000000000000000  0.5000000000000000
  0.8330456727075223  0.6665880862166763  0.6665880862166763
  0.6665880862166763  0.8330456727075223  0.6665880862166763
  0.6665880862166763  0.6665880862166763  0.8330456727075223
  0.8333066098032770  0.6666553202401906  0.3333446797598094
  0.6666553202401906  0.8333066098032770  0.3333446797598094
  0.8333066098032770  0.3333446797598094  0.6666553202401906
  0.6666553202401906  0.3333446797598094  0.8333066098032770
  0.3333446797598094  0.8333066098032770  0.6666553202401906
  0.3333446797598094  0.6666553202401906  0.8333066098032770
  0.8330456727075223  0.3334119137833237  0.3334119137833237
  0.6666553202401906  0.6666553202401906  0.1666933901967231
  0.6666553202401906  0.1666933901967231  0.6666553202401906
  0.3334119137833237  0.8330456727075223  0.3334119137833237
  0.3334119137833237  0.3334119137833237  0.8330456727075223
  0.1666933901967231  0.6666553202401906  0.6666553202401906
  0.6665880862166763  0.3334119137833237  0.1669543272924778
  0.6665880862166763  0.1669543272924778  0.3334119137833237
  0.3334119137833237  0.6665880862166763  0.1669543272924778
  0.1669543272924778  0.6665880862166763  0.3334119137833237
  0.3334119137833237  0.1669543272924778  0.6665880862166763
  0.1669543272924778  0.3334119137833237  0.6665880862166763
  0.3333446797598094  0.3333446797598094  0.1666933901967231
  0.3333446797598094  0.1666933901967231  0.3333446797598094
  0.1666933901967231  0.3333446797598094  0.3333446797598094
  0.8329001943039697  0.8329001943039697  0.5001202813415531
  0.8329001943039697  0.5001202813415531  0.8329001943039697
  0.5001202813415531  0.8329001943039697  0.8329001943039697
  0.8329001943039697  0.4998797186584469  0.1670998056960303
  0.8329001943039697  0.1670998056960303  0.4998797186584469
  0.4998797186584469  0.8329001943039697  0.1670998056960303
  0.4998797186584469  0.1670998056960303  0.8329001943039697
  0.1670998056960303  0.8329001943039697  0.4998797186584469
  0.1670998056960303  0.4998797186584469  0.8329001943039697
  0.5001202813415531  0.1670998056960303  0.1670998056960303
  0.1670998056960303  0.5001202813415531  0.1670998056960303
  0.1670998056960303  0.1670998056960303  0.5001202813415531
 -0.0000000000000000  0.6666743937171479  0.5000000000000000
 -0.0000000000000000  0.5000000000000000  0.6666743937171479
  0.6666743937171479  0.0000000000000000  0.5000000000000000
  0.5000000000000000  0.0000000000000000  0.6666743937171479
  0.6666743937171479  0.5000000000000000 -0.0000000000000000
  0.5000000000000000  0.6666743937171479 -0.0000000000000000
 -0.0000000000000000  0.5000000000000000  0.3333256062828520
 -0.0000000000000000  0.3333256062828520  0.5000000000000000
  0.5000000000000000  0.0000000000000000  0.3333256062828520
  0.3333256062828520  0.0000000000000000  0.5000000000000000
  0.5000000000000000  0.3333256062828520 -0.0000000000000000
  0.3333256062828520  0.5000000000000000 -0.0000000000000000
  0.8332770041836904  0.8332770041836904  0.8332770041836904
  0.8333387822944468  0.8333387822944468  0.1666612177055531
  0.8333387822944468  0.1666612177055531  0.8333387822944468
  0.1666612177055531  0.8333387822944468  0.8333387822944468
  0.8332770041836904  0.1667229958163096  0.1667229958163096
  0.1667229958163096  0.8332770041836904  0.1667229958163096
  0.1667229958163096  0.1667229958163096  0.8332770041836904
  0.1666612177055531  0.1666612177055531  0.1666612177055531
  0.9999543825213784  0.8332922446616161  0.6666096788408169
  0.9999543825213784  0.6666096788408169  0.8332922446616161
  0.8332922446616161  0.9999543825213784  0.6666096788408169
  0.8332922446616161  0.6666096788408169  0.9999543825213784
  0.6666096788408169  0.9999543825213784  0.8332922446616161
  0.6666096788408169  0.8332922446616161  0.9999543825213784
  0.0000456174786217  0.8332922446616161  0.3333903211591832
  0.8332922446616161  0.0000456174786217  0.3333903211591832
  0.0000456174786217  0.3333903211591832  0.8332922446616161
  0.8332922446616161  0.3333903211591832  0.0000456174786217
  0.0000456174786217  0.6666096788408169  0.1667077553383838
  0.3333903211591832  0.0000456174786217  0.8332922446616161
  0.3333903211591832  0.8332922446616161  0.0000456174786217
  0.6666096788408169  0.0000456174786217  0.1667077553383838
  0.0000456174786217  0.1667077553383838  0.6666096788408169
  0.6666096788408169  0.1667077553383838  0.0000456174786217
  0.9999543825213784  0.3333903211591832  0.1667077553383838
  0.1667077553383838  0.0000456174786217  0.6666096788408169
  0.9999543825213784  0.1667077553383838  0.3333903211591832
  0.1667077553383838  0.6666096788408169  0.0000456174786217
  0.3333903211591832  0.9999543825213784  0.1667077553383838
  0.1667077553383838  0.9999543825213784  0.3333903211591832
  0.3333903211591832  0.1667077553383838  0.9999543825213784
  0.1667077553383838  0.3333903211591832  0.9999543825213784
 -0.0000000000000000  0.0000000000000000  0.5000000000000000
 -0.0000000000000000  0.5000000000000000 -0.0000000000000000
  0.5000000000000000  0.0000000000000000 -0.0000000000000000
 -0.0000000000000000  0.0000000000000000  0.8333103511118446
 -0.0000000000000000  0.8333103511118446 -0.0000000000000000
  0.8333103511118446  0.0000000000000000 -0.0000000000000000
 -0.0000000000000000  0.0000000000000000  0.1666896488881554
 -0.0000000000000000  0.1666896488881554 -0.0000000000000000
  0.1666896488881554  0.0000000000000000 -0.0000000000000000
  0.5000000000000000  0.5000000000000000  0.5000000000000000
  0.5794865457792623  0.5794865457792623  0.5794865457792623
  0.5794865457792623  0.4205134542207376  0.4205134542207376
  0.4205134542207376  0.5794865457792623  0.4205134542207376
  0.4205134542207376  0.4205134542207376  0.5794865457792623
  0.7500178738365010  0.5831633183342811  0.4168366816657190
  0.7500178738365010  0.4168366816657190  0.5831633183342811
  0.5831633183342811  0.7500178738365010  0.4168366816657190
  0.5831633183342811  0.4168366816657190  0.7500178738365010
  0.4168366816657190  0.7500178738365010  0.5831633183342811
  0.4168366816657190  0.5831633183342811  0.7500178738365010
  0.5831633183342811  0.5831633183342811  0.2499821261634991
  0.5831633183342811  0.2499821261634991  0.5831633183342811
  0.2499821261634991  0.5831633183342811  0.5831633183342811
  0.4168366816657190  0.4168366816657190  0.2499821261634991
  0.4168366816657190  0.2499821261634991  0.4168366816657190
  0.2499821261634991  0.4168366816657190  0.4168366816657190
  0.7491207173979287  0.7491207173979287  0.5830906803255675
  0.7491207173979287  0.5830906803255675  0.7491207173979287
  0.5830906803255675  0.7491207173979287  0.7491207173979287
  0.7491207173979287  0.4169093196744325  0.2508792826020712
  0.7491207173979287  0.2508792826020712  0.4169093196744325
  0.4169093196744325  0.7491207173979287  0.2508792826020712
  0.2508792826020712  0.7491207173979287  0.4169093196744325
  0.4169093196744325  0.2508792826020712  0.7491207173979287
  0.2508792826020712  0.4169093196744325  0.7491207173979287
  0.5830906803255675  0.2508792826020712  0.2508792826020712
  0.2508792826020712  0.5830906803255675  0.2508792826020712
  0.2508792826020712  0.2508792826020712  0.5830906803255675
  0.9166995922668446  0.5833938874925002  0.5833938874925002
  0.5833938874925002  0.9166995922668446  0.5833938874925002
  0.5833938874925002  0.5833938874925002  0.9166995922668446
  0.9166995922668446  0.4166061125074998  0.4166061125074998
  0.7499631210662153  0.7499631210662153  0.2500368789337849
  0.7499631210662153  0.2500368789337849  0.7499631210662153
  0.4166061125074998  0.9166995922668446  0.4166061125074998
  0.4166061125074998  0.4166061125074998  0.9166995922668446
  0.2500368789337849  0.7499631210662153  0.7499631210662153
  0.5833938874925002  0.4166061125074998  0.0833004077331556
  0.4166061125074998  0.5833938874925002  0.0833004077331556
  0.5833938874925002  0.0833004077331556  0.4166061125074998
  0.4166061125074998  0.0833004077331556  0.5833938874925002
  0.0833004077331556  0.5833938874925002  0.4166061125074998
  0.0833004077331556  0.4166061125074998  0.5833938874925002
  0.2500368789337849  0.2500368789337849  0.2500368789337849
  0.9165904113989986  0.7499517713993451  0.4167042853789356
  0.7499517713993451  0.9165904113989986  0.4167042853789356
  0.9165904113989986  0.4167042853789356  0.7499517713993451
  0.7499517713993451  0.4167042853789356  0.9165904113989986
  0.4167042853789356  0.9165904113989986  0.7499517713993451
  0.4167042853789356  0.7499517713993451  0.9165904113989986
  0.9165904113989986  0.5832957146210643  0.2500482286006548
  0.9165904113989986  0.2500482286006548  0.5832957146210643
  0.5832957146210643  0.9165904113989986  0.2500482286006548
  0.5832957146210643  0.2500482286006548  0.9165904113989986
  0.2500482286006548  0.9165904113989986  0.5832957146210643
  0.2500482286006548  0.5832957146210643  0.9165904113989986
  0.7499517713993451  0.5832957146210643  0.0834095886010016
  0.5832957146210643  0.7499517713993451  0.0834095886010016
  0.7499517713993451  0.0834095886010016  0.5832957146210643
  0.5832957146210643  0.0834095886010016  0.7499517713993451
  0.0834095886010016  0.7499517713993451  0.5832957146210643
  0.0834095886010016  0.5832957146210643  0.7499517713993451
  0.4167042853789356  0.2500482286006548  0.0834095886010016
  0.4167042853789356  0.0834095886010016  0.2500482286006548
  0.2500482286006548  0.4167042853789356  0.0834095886010016
  0.2500482286006548  0.0834095886010016  0.4167042853789356
  0.0834095886010016  0.4167042853789356  0.2500482286006548
  0.0834095886010016  0.2500482286006548  0.4167042853789356
  0.9165461645937241  0.7498796260997143  0.7498796260997143
  0.7498796260997143  0.9165461645937241  0.7498796260997143
  0.7498796260997143  0.7498796260997143  0.9165461645937241
  0.9165461645937241  0.2501203739002855  0.2501203739002855
  0.2501203739002855  0.9165461645937241  0.2501203739002855
  0.2501203739002855  0.2501203739002855  0.9165461645937241
  0.7498796260997143  0.2501203739002855  0.0834538354062760
  0.7498796260997143  0.0834538354062760  0.2501203739002855
  0.2501203739002855  0.7498796260997143  0.0834538354062760
  0.0834538354062760  0.7498796260997143  0.2501203739002855
  0.2501203739002855  0.0834538354062760  0.7498796260997143
  0.0834538354062760  0.2501203739002855  0.7498796260997143
  0.9164864419624632  0.9164864419624632  0.5832293199025079
  0.9164864419624632  0.5832293199025079  0.9164864419624632
  0.5832293199025079  0.9164864419624632  0.9164864419624632
  0.9164864419624632  0.4167706800974922  0.0835135580375369
  0.9164864419624632  0.0835135580375369  0.4167706800974922
  0.4167706800974922  0.9164864419624632  0.0835135580375369
  0.0835135580375369  0.9164864419624632  0.4167706800974922
  0.4167706800974922  0.0835135580375369  0.9164864419624632
  0.0835135580375369  0.4167706800974922  0.9164864419624632
  0.5832293199025079  0.0835135580375369  0.0835135580375369
  0.0835135580375369  0.5832293199025079  0.0835135580375369
  0.0835135580375369  0.0835135580375369  0.5832293199025079
  0.9166564851218906  0.9166564851218906  0.2500658570958919
  0.9166564851218906  0.2500658570958919  0.9166564851218906
  0.9166564851218906  0.7499341429041082  0.0833435148781093
  0.2500658570958919  0.9166564851218906  0.9166564851218906
  0.7499341429041082  0.9166564851218906  0.0833435148781093
  0.9166564851218906  0.0833435148781093  0.7499341429041082
  0.7499341429041082  0.0833435148781093  0.9166564851218906
  0.0833435148781093  0.9166564851218906  0.7499341429041082
  0.0833435148781093  0.7499341429041082  0.9166564851218906
  0.2500658570958919  0.0833435148781093  0.0833435148781093
  0.0833435148781093  0.2500658570958919  0.0833435148781093
  0.0833435148781093  0.0833435148781093  0.2500658570958919
  0.9166339334041932  0.9166339334041932  0.9166339334041932
  0.9166339334041932  0.0833660665958067  0.0833660665958067
  0.0833660665958067  0.9166339334041932  0.0833660665958067
  0.0833660665958067  0.0833660665958067  0.9166339334041932
 
  0.00000000E+00  0.00000000E+00  0.00000000E+00
  0.00000000E+00  0.00000000E+00  0.00000000E+00
  0.00000000E+00  0.00000000E+00  0.00000000E+00
  0.00000000E+00  0.00000000E+00  0.00000000E+00
  0.00000000E+00  0.00000000E+00  0.00000000E+00
  0.00000000E+00  0.00000000E+00  0.00000000E+00
  0.00000000E+00  0.00000000E+00  0.00000000E+00
  0.00000000E+00  0.00000000E+00  0.00000000E+00
  0.00000000E+00  0.00000000E+00  0.00000000E+00
  0.00000000E+00  0.00000000E+00  0.00000000E+00
  0.00000000E+00  0.00000000E+00  0.00000000E+00
  0.00000000E+00  0.00000000E+00  0.00000000E+00
  0.00000000E+00  0.00000000E+00  0.00000000E+00
  0.00000000E+00  0.00000000E+00  0.00000000E+00
  0.00000000E+00  0.00000000E+00  0.00000000E+00
  0.00000000E+00  0.00000000E+00  0.00000000E+00
  0.00000000E+00  0.00000000E+00  0.00000000E+00
  0.00000000E+00  0.00000000E+00  0.00000000E+00
  0.00000000E+00  0.00000000E+00  0.00000000E+00
  0.00000000E+00  0.00000000E+00  0.00000000E+00
  0.00000000E+00  0.00000000E+00  0.00000000E+00
  0.00000000E+00  0.00000000E+00  0.00000000E+00
  0.00000000E+00  0.00000000E+00  0.00000000E+00
  0.00000000E+00  0.00000000E+00  0.00000000E+00
  0.00000000E+00  0.00000000E+00  0.00000000E+00
  0.00000000E+00  0.00000000E+00  0.00000000E+00
  0.00000000E+00  0.00000000E+00  0.00000000E+00
  0.00000000E+00  0.00000000E+00  0.00000000E+00
  0.00000000E+00  0.00000000E+00  0.00000000E+00
  0.00000000E+00  0.00000000E+00  0.00000000E+00
  0.00000000E+00  0.00000000E+00  0.00000000E+00
  0.00000000E+00  0.00000000E+00  0.00000000E+00
  0.00000000E+00  0.00000000E+00  0.00000000E+00
  0.00000000E+00  0.00000000E+00  0.00000000E+00
  0.00000000E+00  0.00000000E+00  0.00000000E+00
  0.00000000E+00  0.00000000E+00  0.00000000E+00
  0.00000000E+00  0.00000000E+00  0.00000000E+00
  0.00000000E+00  0.00000000E+00  0.00000000E+00
  0.00000000E+00  0.00000000E+00  0.00000000E+00
  0.00000000E+00  0.00000000E+00  0.00000000E+00
  0.00000000E+00  0.00000000E+00  0.00000000E+00
  0.00000000E+00  0.00000000E+00  0.00000000E+00
  0.00000000E+00  0.00000000E+00  0.00000000E+00
  0.00000000E+00  0.00000000E+00  0.00000000E+00
  0.00000000E+00  0.00000000E+00  0.00000000E+00
  0.00000000E+00  0.00000000E+00  0.00000000E+00
  0.00000000E+00  0.00000000E+00  0.00000000E+00
  0.00000000E+00  0.00000000E+00  0.00000000E+00
  0.00000000E+00  0.00000000E+00  0.00000000E+00
  0.00000000E+00  0.00000000E+00  0.00000000E+00
  0.00000000E+00  0.00000000E+00  0.00000000E+00
  0.00000000E+00  0.00000000E+00  0.00000000E+00
  0.00000000E+00  0.00000000E+00  0.00000000E+00
  0.00000000E+00  0.00000000E+00  0.00000000E+00
  0.00000000E+00  0.00000000E+00  0.00000000E+00
  0.00000000E+00  0.00000000E+00  0.00000000E+00
  0.00000000E+00  0.00000000E+00  0.00000000E+00
  0.00000000E+00  0.00000000E+00  0.00000000E+00
  0.00000000E+00  0.00000000E+00  0.00000000E+00
  0.00000000E+00  0.00000000E+00  0.00000000E+00
  0.00000000E+00  0.00000000E+00  0.00000000E+00
  0.00000000E+00  0.00000000E+00  0.00000000E+00
  0.00000000E+00  0.00000000E+00  0.00000000E+00
  0.00000000E+00  0.00000000E+00  0.00000000E+00
  0.00000000E+00  0.00000000E+00  0.00000000E+00
  0.00000000E+00  0.00000000E+00  0.00000000E+00
  0.00000000E+00  0.00000000E+00  0.00000000E+00
  0.00000000E+00  0.00000000E+00  0.00000000E+00
  0.00000000E+00  0.00000000E+00  0.00000000E+00
  0.00000000E+00  0.00000000E+00  0.00000000E+00
  0.00000000E+00  0.00000000E+00  0.00000000E+00
  0.00000000E+00  0.00000000E+00  0.00000000E+00
  0.00000000E+00  0.00000000E+00  0.00000000E+00
  0.00000000E+00  0.00000000E+00  0.00000000E+00
  0.00000000E+00  0.00000000E+00  0.00000000E+00
  0.00000000E+00  0.00000000E+00  0.00000000E+00
  0.00000000E+00  0.00000000E+00  0.00000000E+00
  0.00000000E+00  0.00000000E+00  0.00000000E+00
  0.00000000E+00  0.00000000E+00  0.00000000E+00
  0.00000000E+00  0.00000000E+00  0.00000000E+00
  0.00000000E+00  0.00000000E+00  0.00000000E+00
  0.00000000E+00  0.00000000E+00  0.00000000E+00
  0.00000000E+00  0.00000000E+00  0.00000000E+00
  0.00000000E+00  0.00000000E+00  0.00000000E+00
  0.00000000E+00  0.00000000E+00  0.00000000E+00
  0.00000000E+00  0.00000000E+00  0.00000000E+00
  0.00000000E+00  0.00000000E+00  0.00000000E+00
  0.00000000E+00  0.00000000E+00  0.00000000E+00
  0.00000000E+00  0.00000000E+00  0.00000000E+00
  0.00000000E+00  0.00000000E+00  0.00000000E+00
  0.00000000E+00  0.00000000E+00  0.00000000E+00
  0.00000000E+00  0.00000000E+00  0.00000000E+00
  0.00000000E+00  0.00000000E+00  0.00000000E+00
  0.00000000E+00  0.00000000E+00  0.00000000E+00
  0.00000000E+00  0.00000000E+00  0.00000000E+00
  0.00000000E+00  0.00000000E+00  0.00000000E+00
  0.00000000E+00  0.00000000E+00  0.00000000E+00
  0.00000000E+00  0.00000000E+00  0.00000000E+00
  0.00000000E+00  0.00000000E+00  0.00000000E+00
  0.00000000E+00  0.00000000E+00  0.00000000E+00
  0.00000000E+00  0.00000000E+00  0.00000000E+00
  0.00000000E+00  0.00000000E+00  0.00000000E+00
  0.00000000E+00  0.00000000E+00  0.00000000E+00
  0.00000000E+00  0.00000000E+00  0.00000000E+00
  0.00000000E+00  0.00000000E+00  0.00000000E+00
  0.00000000E+00  0.00000000E+00  0.00000000E+00
  0.00000000E+00  0.00000000E+00  0.00000000E+00
  0.00000000E+00  0.00000000E+00  0.00000000E+00
  0.00000000E+00  0.00000000E+00  0.00000000E+00
  0.00000000E+00  0.00000000E+00  0.00000000E+00
  0.00000000E+00  0.00000000E+00  0.00000000E+00
  0.00000000E+00  0.00000000E+00  0.00000000E+00
  0.00000000E+00  0.00000000E+00  0.00000000E+00
  0.00000000E+00  0.00000000E+00  0.00000000E+00
  0.00000000E+00  0.00000000E+00  0.00000000E+00
  0.00000000E+00  0.00000000E+00  0.00000000E+00
  0.00000000E+00  0.00000000E+00  0.00000000E+00
  0.00000000E+00  0.00000000E+00  0.00000000E+00
  0.00000000E+00  0.00000000E+00  0.00000000E+00
  0.00000000E+00  0.00000000E+00  0.00000000E+00
  0.00000000E+00  0.00000000E+00  0.00000000E+00
  0.00000000E+00  0.00000000E+00  0.00000000E+00
  0.00000000E+00  0.00000000E+00  0.00000000E+00
  0.00000000E+00  0.00000000E+00  0.00000000E+00
  0.00000000E+00  0.00000000E+00  0.00000000E+00
  0.00000000E+00  0.00000000E+00  0.00000000E+00
  0.00000000E+00  0.00000000E+00  0.00000000E+00
  0.00000000E+00  0.00000000E+00  0.00000000E+00
  0.00000000E+00  0.00000000E+00  0.00000000E+00
  0.00000000E+00  0.00000000E+00  0.00000000E+00
  0.00000000E+00  0.00000000E+00  0.00000000E+00
  0.00000000E+00  0.00000000E+00  0.00000000E+00
  0.00000000E+00  0.00000000E+00  0.00000000E+00
  0.00000000E+00  0.00000000E+00  0.00000000E+00
  0.00000000E+00  0.00000000E+00  0.00000000E+00
  0.00000000E+00  0.00000000E+00  0.00000000E+00
  0.00000000E+00  0.00000000E+00  0.00000000E+00
  0.00000000E+00  0.00000000E+00  0.00000000E+00
  0.00000000E+00  0.00000000E+00  0.00000000E+00
  0.00000000E+00  0.00000000E+00  0.00000000E+00
  0.00000000E+00  0.00000000E+00  0.00000000E+00
  0.00000000E+00  0.00000000E+00  0.00000000E+00
  0.00000000E+00  0.00000000E+00  0.00000000E+00
  0.00000000E+00  0.00000000E+00  0.00000000E+00
  0.00000000E+00  0.00000000E+00  0.00000000E+00
  0.00000000E+00  0.00000000E+00  0.00000000E+00
  0.00000000E+00  0.00000000E+00  0.00000000E+00
  0.00000000E+00  0.00000000E+00  0.00000000E+00
  0.00000000E+00  0.00000000E+00  0.00000000E+00
  0.00000000E+00  0.00000000E+00  0.00000000E+00
  0.00000000E+00  0.00000000E+00  0.00000000E+00
  0.00000000E+00  0.00000000E+00  0.00000000E+00
  0.00000000E+00  0.00000000E+00  0.00000000E+00
  0.00000000E+00  0.00000000E+00  0.00000000E+00
  0.00000000E+00  0.00000000E+00  0.00000000E+00
  0.00000000E+00  0.00000000E+00  0.00000000E+00
  0.00000000E+00  0.00000000E+00  0.00000000E+00
  0.00000000E+00  0.00000000E+00  0.00000000E+00
  0.00000000E+00  0.00000000E+00  0.00000000E+00
  0.00000000E+00  0.00000000E+00  0.00000000E+00
  0.00000000E+00  0.00000000E+00  0.00000000E+00
  0.00000000E+00  0.00000000E+00  0.00000000E+00
  0.00000000E+00  0.00000000E+00  0.00000000E+00
  0.00000000E+00  0.00000000E+00  0.00000000E+00
  0.00000000E+00  0.00000000E+00  0.00000000E+00
  0.00000000E+00  0.00000000E+00  0.00000000E+00
  0.00000000E+00  0.00000000E+00  0.00000000E+00
  0.00000000E+00  0.00000000E+00  0.00000000E+00
  0.00000000E+00  0.00000000E+00  0.00000000E+00
  0.00000000E+00  0.00000000E+00  0.00000000E+00
  0.00000000E+00  0.00000000E+00  0.00000000E+00
  0.00000000E+00  0.00000000E+00  0.00000000E+00
  0.00000000E+00  0.00000000E+00  0.00000000E+00
  0.00000000E+00  0.00000000E+00  0.00000000E+00
  0.00000000E+00  0.00000000E+00  0.00000000E+00
  0.00000000E+00  0.00000000E+00  0.00000000E+00
  0.00000000E+00  0.00000000E+00  0.00000000E+00
  0.00000000E+00  0.00000000E+00  0.00000000E+00
  0.00000000E+00  0.00000000E+00  0.00000000E+00
  0.00000000E+00  0.00000000E+00  0.00000000E+00
  0.00000000E+00  0.00000000E+00  0.00000000E+00
  0.00000000E+00  0.00000000E+00  0.00000000E+00
  0.00000000E+00  0.00000000E+00  0.00000000E+00
  0.00000000E+00  0.00000000E+00  0.00000000E+00
  0.00000000E+00  0.00000000E+00  0.00000000E+00
  0.00000000E+00  0.00000000E+00  0.00000000E+00
  0.00000000E+00  0.00000000E+00  0.00000000E+00
  0.00000000E+00  0.00000000E+00  0.00000000E+00
  0.00000000E+00  0.00000000E+00  0.00000000E+00
  0.00000000E+00  0.00000000E+00  0.00000000E+00
  0.00000000E+00  0.00000000E+00  0.00000000E+00
  0.00000000E+00  0.00000000E+00  0.00000000E+00
  0.00000000E+00  0.00000000E+00  0.00000000E+00
  0.00000000E+00  0.00000000E+00  0.00000000E+00
  0.00000000E+00  0.00000000E+00  0.00000000E+00
  0.00000000E+00  0.00000000E+00  0.00000000E+00
  0.00000000E+00  0.00000000E+00  0.00000000E+00
  0.00000000E+00  0.00000000E+00  0.00000000E+00
  0.00000000E+00  0.00000000E+00  0.00000000E+00
  0.00000000E+00  0.00000000E+00  0.00000000E+00
  0.00000000E+00  0.00000000E+00  0.00000000E+00
  0.00000000E+00  0.00000000E+00  0.00000000E+00
  0.00000000E+00  0.00000000E+00  0.00000000E+00
  0.00000000E+00  0.00000000E+00  0.00000000E+00
  0.00000000E+00  0.00000000E+00  0.00000000E+00
  0.00000000E+00  0.00000000E+00  0.00000000E+00
  0.00000000E+00  0.00000000E+00  0.00000000E+00
  0.00000000E+00  0.00000000E+00  0.00000000E+00
  0.00000000E+00  0.00000000E+00  0.00000000E+00
  0.00000000E+00  0.00000000E+00  0.00000000E+00
  0.00000000E+00  0.00000000E+00  0.00000000E+00
  0.00000000E+00  0.00000000E+00  0.00000000E+00
  0.00000000E+00  0.00000000E+00  0.00000000E+00
  0.00000000E+00  0.00000000E+00  0.00000000E+00
  0.00000000E+00  0.00000000E+00  0.00000000E+00
  0.00000000E+00  0.00000000E+00  0.00000000E+00
