Initial State for  aa_0_C3v_tdA_sc3k2cl_d0lda.out_etbird
   1.00000000000000
   17.5612749176088023  0.0000000000000000    0.0000000000000000
   0.0000000000000000   17.5612749176088023   0.0000000000000000
   0.0000000000000000   0.0000000000000000    17.5612749176088023
   In   P
   107  109
Direct
0.665588556	0.665588556	0.4997461228
0.665588556	0.4997461228	0.665588556
0.4997461228	0.665588556	0.665588556
0.665588556	0.5002538772	0.334411444
0.665588556	0.334411444	0.5002538772
0.5002538772	0.665588556	0.334411444
0.5002538772	0.334411444	0.665588556
0.334411444	0.665588556	0.5002538772
0.334411444	0.5002538772	0.665588556
0.4997461228	0.334411444	0.334411444
0.334411444	0.4997461228	0.334411444
0.334411444	0.334411444	0.4997461228
0.8335666837	0.5	0.5
0.5	0.8335666837	0.5
0.5	0.5	0.8335666837
0.5	0.5	0.1664333163
0.5	0.1664333163	0.5
0.1664333163	0.5	0.5
0.8330450287	0.666629492	0.666629492
0.666629492	0.8330450287	0.666629492
0.666629492	0.666629492	0.8330450287
0.8332941246	0.6666515812	0.3333484188
0.6666515812	0.8332941246	0.3333484188
0.8332941246	0.3333484188	0.6666515812
0.6666515812	0.3333484188	0.8332941246
0.3333484188	0.8332941246	0.6666515812
0.3333484188	0.6666515812	0.8332941246
0.8330450287	0.333370508	0.333370508
0.6666515812	0.6666515812	0.1667058754
0.6666515812	0.1667058754	0.6666515812
0.333370508	0.8330450287	0.333370508
0.333370508	0.333370508	0.8330450287
0.1667058754	0.6666515812	0.6666515812
0.666629492	0.333370508	0.1669549713
0.666629492	0.1669549713	0.333370508
0.333370508	0.666629492	0.1669549713
0.1669549713	0.666629492	0.333370508
0.333370508	0.1669549713	0.666629492
0.1669549713	0.333370508	0.666629492
0.3333484188	0.3333484188	0.1667058754
0.3333484188	0.1667058754	0.3333484188
0.1667058754	0.3333484188	0.3333484188
0.8330398119	0.8330398119	0.5000897643
0.8330398119	0.5000897643	0.8330398119
0.5000897643	0.8330398119	0.8330398119
0.8330398119	0.4999102357	0.1669601881
0.8330398119	0.1669601881	0.4999102357
0.4999102357	0.8330398119	0.1669601881
0.4999102357	0.1669601881	0.8330398119
0.1669601881	0.8330398119	0.4999102357
0.1669601881	0.4999102357	0.8330398119
0.5000897643	0.1669601881	0.1669601881
0.1669601881	0.5000897643	0.1669601881
0.1669601881	0.1669601881	0.5000897643
1	0.6666605134	0.5
1	0.5	0.6666605134
0.6666605134	1	0.5
0.5	1	0.6666605134
0.6666605134	0.5	1
0.5	0.6666605134	1
1	0.5	0.3333394866
1	0.3333394866	0.5
0.5	1	0.3333394866
0.3333394866	1	0.5
0.5	0.3333394866	1
0.3333394866	0.5	1
0.8333014093	0.8333014093	0.8333014093
0.8333547972	0.8333547972	0.1666452028
0.8333547972	0.1666452028	0.8333547972
0.1666452028	0.8333547972	0.8333547972
0.8333014093	0.1666985907	0.1666985907
0.1666985907	0.8333014093	0.1666985907
0.1666985907	0.1666985907	0.8333014093
0.1666452028	0.1666452028	0.1666452028
0.9999749262	0.8333032066	0.6666453865
0.9999749262	0.6666453865	0.8333032066
0.8333032066	0.9999749262	0.6666453865
0.8333032066	0.6666453865	0.9999749262
0.6666453865	0.9999749262	0.8333032066
0.6666453865	0.8333032066	0.9999749262
1.0000250738	0.8333032066	0.3333546135
0.8333032066	1.0000250738	0.3333546135
1.0000250738	0.3333546135	0.8333032066
0.8333032066	0.3333546135	1.0000250738
1.0000250738	0.6666453865	0.1666967934
0.3333546135	1.0000250738	0.8333032066
0.3333546135	0.8333032066	1.0000250738
0.6666453865	1.0000250738	0.1666967934
1.0000250738	0.1666967934	0.6666453865
0.6666453865	0.1666967934	1.0000250738
0.9999749262	0.3333546135	0.1666967934
0.1666967934	1.0000250738	0.6666453865
0.9999749262	0.1666967934	0.3333546135
0.1666967934	0.6666453865	1.0000250738
0.3333546135	0.9999749262	0.1666967934
0.1666967934	0.9999749262	0.3333546135
0.3333546135	0.1666967934	0.9999749262
0.1666967934	0.3333546135	0.9999749262
1	1	0.5
1	0.5	1
0.5	1	1
1	1	0.8333252196
1	0.8333252196	1
0.8333252196	1	1
1	1	0.1666747804
1	0.1666747804	1
0.1666747804	1	1
0.5	0.5	0.5
0.5796879535	0.5796879535	0.5796879535
0.5796879535	0.4203120465	0.4203120465
0.4203120465	0.5796879535	0.4203120465
0.4203120465	0.4203120465	0.5796879535
0.7499849354	0.5831818189	0.4168181811
0.7499849354	0.4168181811	0.5831818189
0.5831818189	0.7499849354	0.4168181811
0.5831818189	0.4168181811	0.7499849354
0.4168181811	0.7499849354	0.5831818189
0.4168181811	0.5831818189	0.7499849354
0.5831818189	0.5831818189	0.2500150646
0.5831818189	0.2500150646	0.5831818189
0.2500150646	0.5831818189	0.5831818189
0.4168181811	0.4168181811	0.2500150646
0.4168181811	0.2500150646	0.4168181811
0.2500150646	0.4168181811	0.4168181811
0.7492925915	0.7492925915	0.5831052596
0.7492925915	0.5831052596	0.7492925915
0.5831052596	0.7492925915	0.7492925915
0.7492925915	0.4168947404	0.2507074085
0.7492925915	0.2507074085	0.4168947404
0.4168947404	0.7492925915	0.2507074085
0.2507074085	0.7492925915	0.4168947404
0.4168947404	0.2507074085	0.7492925915
0.2507074085	0.4168947404	0.7492925915
0.5831052596	0.2507074085	0.2507074085
0.2507074085	0.5831052596	0.2507074085
0.2507074085	0.2507074085	0.5831052596
0.9166685925	0.5833934443	0.5833934443
0.5833934443	0.9166685925	0.5833934443
0.5833934443	0.5833934443	0.9166685925
0.9166685925	0.4166065557	0.4166065557
0.7499827088	0.7499827088	0.2500172912
0.7499827088	0.2500172912	0.7499827088
0.4166065557	0.9166685925	0.4166065557
0.4166065557	0.4166065557	0.9166685925
0.2500172912	0.7499827088	0.7499827088
0.5833934443	0.4166065557	0.0833314075
0.4166065557	0.5833934443	0.0833314075
0.5833934443	0.0833314075	0.4166065557
0.4166065557	0.0833314075	0.5833934443
0.0833314075	0.5833934443	0.4166065557
0.0833314075	0.4166065557	0.5833934443
0.2500172912	0.2500172912	0.2500172912
0.9166154847	0.7499564846	0.4166910708
0.7499564846	0.9166154847	0.4166910708
0.9166154847	0.4166910708	0.7499564846
0.7499564846	0.4166910708	0.9166154847
0.4166910708	0.9166154847	0.7499564846
0.4166910708	0.7499564846	0.9166154847
0.9166154847	0.5833089292	0.2500435154
0.9166154847	0.2500435154	0.5833089292
0.5833089292	0.9166154847	0.2500435154
0.5833089292	0.2500435154	0.9166154847
0.2500435154	0.9166154847	0.5833089292
0.2500435154	0.5833089292	0.9166154847
0.7499564846	0.5833089292	0.0833845153
0.5833089292	0.7499564846	0.0833845153
0.7499564846	0.0833845153	0.5833089292
0.5833089292	0.0833845153	0.7499564846
0.0833845153	0.7499564846	0.5833089292
0.0833845153	0.5833089292	0.7499564846
0.4166910708	0.2500435154	0.0833845153
0.4166910708	0.0833845153	0.2500435154
0.2500435154	0.4166910708	0.0833845153
0.2500435154	0.0833845153	0.4166910708
0.0833845153	0.4166910708	0.2500435154
0.0833845153	0.2500435154	0.4166910708
0.9165901402	0.7499339105	0.7499339105
0.7499339105	0.9165901402	0.7499339105
0.7499339105	0.7499339105	0.9165901402
0.9165901402	0.2500660895	0.2500660895
0.2500660895	0.9165901402	0.2500660895
0.2500660895	0.2500660895	0.9165901402
0.7499339105	0.2500660895	0.0834098598
0.7499339105	0.0834098598	0.2500660895
0.2500660895	0.7499339105	0.0834098598
0.0834098598	0.7499339105	0.2500660895
0.2500660895	0.0834098598	0.7499339105
0.0834098598	0.2500660895	0.7499339105
0.9165558546	0.9165558546	0.5832978149
0.9165558546	0.5832978149	0.9165558546
0.5832978149	0.9165558546	0.9165558546
0.9165558546	0.4167021851	0.0834441454
0.9165558546	0.0834441454	0.4167021851
0.4167021851	0.9165558546	0.0834441454
0.0834441454	0.9165558546	0.4167021851
0.4167021851	0.0834441454	0.9165558546
0.0834441454	0.4167021851	0.9165558546
0.5832978149	0.0834441454	0.0834441454
0.0834441454	0.5832978149	0.0834441454
0.0834441454	0.0834441454	0.5832978149
0.9166610546	0.9166610546	0.2500288425
0.9166610546	0.2500288425	0.9166610546
0.9166610546	0.7499711575	0.0833389454
0.2500288425	0.9166610546	0.9166610546
0.7499711575	0.9166610546	0.0833389454
0.9166610546	0.0833389454	0.7499711575
0.7499711575	0.0833389454	0.9166610546
0.0833389454	0.9166610546	0.7499711575
0.0833389454	0.7499711575	0.9166610546
0.2500288425	0.0833389454	0.0833389454
0.0833389454	0.2500288425	0.0833389454
0.0833389454	0.0833389454	0.2500288425
0.9166520389	0.9166520389	0.9166520389
0.9166520389	0.0833479611	0.0833479611
0.0833479611	0.9166520389	0.0833479611
0.0833479611	0.0833479611	0.9166520389
