Initial State for  iP_0_001iC2v_tdC_sc3k2cl_d0lda
   1.00000000000000     
    17.5612749176088023    0.0000000000000000    0.0000000000000000
     0.0000000000000000   17.5612749176088023    0.0000000000000000
     0.0000000000000000    0.0000000000000000   17.5612749176088023
   In   P 
   108   109
Direct
0.5	0.5	0.4701696962
0.6701736658	0.6701736658	0.4960096769
0.6710258798	0.5009096022	0.669898834
0.5009096022	0.6710258798	0.669898834
0.6701634565	0.5013316745	0.3269004353
0.6648388041	0.3351611959	0.501016237
0.5013316745	0.6701634565	0.3269004353
0.4990903978	0.3289741202	0.669898834
0.3351611959	0.6648388041	0.501016237
0.3289741202	0.4990903978	0.669898834
0.4986683255	0.3298365435	0.3269004353
0.3298365435	0.4986683255	0.3269004353
0.3298263342	0.3298263342	0.4960096769
0.8335553653	0.500328286	0.4989535328
0.500328286	0.8335553653	0.4989535328
0.5	0.5	0.8321053717
0.5	0.5	0.1640888299
0.499671714	0.1664446347	0.4989535328
0.1664446347	0.499671714	0.4989535328
0.8334365823	0.6668445712	0.6662776602
0.6668445712	0.8334365823	0.6662776602
0.6674323282	0.6674323282	0.8339952203
0.8342664007	0.6672696167	0.3317773729
0.6672696167	0.8342664007	0.3317773729
0.8328477816	0.3334186442	0.6659988589
0.6662914634	0.3337085366	0.8337708591
0.3334186442	0.8328477816	0.6659988589
0.3337085366	0.6662914634	0.8337708591
0.8331663592	0.3330925476	0.3331378779
0.6677698243	0.6677698243	0.1642275843
0.6665813558	0.1671522184	0.6659988589
0.3330925476	0.8331663592	0.3331378779
0.3325676718	0.3325676718	0.8339952203
0.1671522184	0.6665813558	0.6659988589
0.6669649861	0.3330350139	0.1647099368
0.6669074524	0.1668336408	0.3331378779
0.3330350139	0.6669649861	0.1647099368
0.1668336408	0.6669074524	0.3331378779
0.3331554288	0.1665634177	0.6662776602
0.1665634177	0.3331554288	0.6662776602
0.3322301757	0.3322301757	0.1642275843
0.3327303833	0.1657335993	0.3317773729
0.1657335993	0.3327303833	0.3317773729
0.8346200528	0.8346200528	0.4994211468
0.8355580011	0.4999766791	0.8349737257
0.4999766791	0.8355580011	0.8349737257
0.8347265924	0.500368918	0.1645376953
0.8326972726	0.1673027274	0.4991710064
0.500368918	0.8347265924	0.1645376953
0.5000233209	0.1644419989	0.8349737257
0.1673027274	0.8326972726	0.4991710064
0.1644419989	0.5000233209	0.8349737257
0.499631082	0.1652734076	0.1645376953
0.1652734076	0.499631082	0.1645376953
0.1653799472	0.1653799472	0.4994211468
1.0000621651	0.6666985895	0.4993420541
1	0.5	0.6659391262
0.6666985895	1.0000621651	0.4993420541
0.5	1	0.6659391262
0.6671291016	0.5001751593	0.9987621447
0.5001751593	0.6671291016	0.9987621447
1	0.5	0.3323907686
0.9999378349	0.3333014105	0.4993420541
0.5	1	0.3323907686
0.3333014105	0.9999378349	0.4993420541
0.4998248407	0.3328708984	0.9987621447
0.3328708984	0.4998248407	0.9987621447
0.8337075988	0.8337075988	0.8324308314
0.8339211277	0.8339211277	0.1659133239
0.8331877277	0.1668122723	0.8323054053
0.1668122723	0.8331877277	0.8323054053
0.8334813044	0.1665186956	0.1661900127
0.1665186956	0.8334813044	0.1661900127
0.1662924012	0.1662924012	0.8324308314
0.1660788723	0.1660788723	0.1659133239
1.0004153864	0.8334047734	0.6658339941
1.0002631338	0.6670654806	0.8322048985
0.8334047734	1.0004153864	0.6658339941
0.8342745469	0.6673610867	0.9993256607
0.6670654806	1.0002631338	0.8322048985
0.6673610867	0.8342745469	0.9993256607
1.0002649643	0.8335420596	0.332778768
0.8335420596	1.0002649643	0.332778768
0.9997368662	0.3329345194	0.8322048985
0.8337438123	0.3328675855	0.9993167827
1.0004834886	0.6671502867	0.1661931838
0.3329345194	0.9997368662	0.8322048985
0.3328675855	0.8337438123	0.9993167827
0.6671502867	1.0004834886	0.1661931838
0.9995846136	0.1665952266	0.6658339941
0.6671324145	0.1662561877	0.9993167827
0.9995165114	0.3328497133	0.1661931838
0.1665952266	0.9995846136	0.6658339941
0.9997350357	0.1664579404	0.332778768
0.1662561877	0.6671324145	0.9993167827
0.3328497133	0.9995165114	0.1661931838
0.1664579404	0.9997350357	0.332778768
0.3326389133	0.1657254531	0.9993256607
0.1657254531	0.3326389133	0.9993256607
1	1	0.4991249061
1	0.5	1.0000898053
0.5	1	1.0000898053
1	1	0.8324063144
1.0002170546	0.8335711349	0.9991263927
0.8335711349	1.0002170546	0.9991263927
1	1	0.1659778423
0.9997829454	0.1664288651	0.9991263927
0.1664288651	0.9997829454	0.9991263927
0.5	0.5	0.605504968
0.5957107603	0.5957107603	0.5928135942
0.5879972682	0.4120027318	0.4048189766
0.4120027318	0.5879972682	0.4048189766
0.4042892397	0.4042892397	0.5928135942
0.7508159401	0.5832024013	0.4142010651
0.7499234835	0.4177084064	0.5826503171
0.5832024013	0.7508159401	0.4142010651
0.5838491782	0.4161508218	0.7495265749
0.4177084064	0.7499234835	0.5826503171
0.4161508218	0.5838491782	0.7495265749
0.5839323169	0.5839323169	0.2464954643
0.5822915936	0.2500765165	0.5826503171
0.2500765165	0.5822915936	0.5826503171
0.4160676831	0.4160676831	0.2464954643
0.4167975987	0.2491840599	0.4142010651
0.2491840599	0.4167975987	0.4142010651
0.7516700361	0.7516700361	0.5825957988
0.7533693149	0.5843781179	0.7533029487
0.5843781179	0.7533693149	0.7533029487
0.752285654	0.4158154349	0.2466816197
0.7486571547	0.2513428453	0.4169726926
0.4158154349	0.752285654	0.2466816197
0.2513428453	0.7486571547	0.4169726926
0.4156218821	0.2466306851	0.7533029487
0.2466306851	0.4156218821	0.7533029487
0.5841845651	0.247714346	0.2466816197
0.247714346	0.5841845651	0.2466816197
0.2483299639	0.2483299639	0.5825957988
0.9165702243	0.5834847948	0.5826225546
0.5834847948	0.9165702243	0.5826225546
0.5833586348	0.5833586348	0.9158094613
0.9167317811	0.4167347735	0.415853907
0.7504324541	0.7504324541	0.2488352518
0.7495813108	0.2504186892	0.7496700693
0.4167347735	0.9167317811	0.415853907
0.4166413652	0.4166413652	0.9158094613
0.2504186892	0.7495813108	0.7496700693
0.58358594	0.41641406	0.0817188643
0.41641406	0.58358594	0.0817188643
0.5832652265	0.0832682189	0.415853907
0.4165152052	0.0834297757	0.5826225546
0.0832682189	0.5832652265	0.415853907
0.0834297757	0.4165152052	0.5826225546
0.2495675459	0.2495675459	0.2488352518
0.9169402025	0.7502743175	0.4159728454
0.7502743175	0.9169402025	0.4159728454
0.9166214063	0.4166761312	0.7492362935
0.7508282163	0.4163806437	0.916539718
0.4166761312	0.9166214063	0.7492362935
0.4163806437	0.7508282163	0.916539718
0.9171705703	0.5834902666	0.248848413
0.9163484118	0.250214472	0.5826186283
0.5834902666	0.9171705703	0.248848413
0.5836193563	0.2491717837	0.916539718
0.250214472	0.9163484118	0.5826186283
0.2491717837	0.5836193563	0.916539718
0.7507585158	0.5835768736	0.0818538706
0.5835768736	0.7507585158	0.0818538706
0.749785528	0.0836515882	0.5826186283
0.5833238688	0.0833785937	0.7492362935
0.0836515882	0.749785528	0.5826186283
0.0833785937	0.5833238688	0.7492362935
0.4164231264	0.2492414842	0.0818538706
0.4165097334	0.0828294297	0.248848413
0.2492414842	0.4164231264	0.0818538706
0.2497256825	0.0830597975	0.4159728454
0.0828294297	0.4165097334	0.248848413
0.0830597975	0.2497256825	0.4159728454
0.9169548656	0.7504286433	0.7490821599
0.7504286433	0.9169548656	0.7490821599
0.750907627	0.750907627	0.9166640025
0.916379564	0.2497787241	0.2497621513
0.2497787241	0.916379564	0.2497621513
0.249092373	0.249092373	0.9166640025
0.7505640001	0.2494359999	0.0823728303
0.7502212759	0.083620436	0.2497621513
0.2494359999	0.7505640001	0.0823728303
0.083620436	0.7502212759	0.2497621513
0.2495713567	0.0830451344	0.7490821599
0.0830451344	0.2495713567	0.7490821599
0.9173616673	0.9173616673	0.5829487599
0.9182576853	0.5840426841	0.917007477
0.5840426841	0.9182576853	0.917007477
0.9171114823	0.416125722	0.0823875546
0.9163902384	0.0836097616	0.4163199791
0.416125722	0.9171114823	0.0823875546
0.0836097616	0.9163902384	0.4163199791
0.4159573159	0.0817423147	0.917007477
0.0817423147	0.4159573159	0.917007477
0.583874278	0.0828885177	0.0823875546
0.0828885177	0.583874278	0.0823875546
0.0826383327	0.0826383327	0.5829487599
0.9169231517	0.9169231517	0.2496429164
0.9166684164	0.2497004748	0.915700936
0.9172681142	0.7504943631	0.0829589023
0.2497004748	0.9166684164	0.915700936
0.7504943631	0.9172681142	0.0829589023
0.9165904729	0.0834095271	0.7492975406
0.7502995252	0.0833315836	0.915700936
0.0834095271	0.9165904729	0.7492975406
0.0833315836	0.7502995252	0.915700936
0.2495056369	0.0827318858	0.0829589023
0.0827318858	0.2495056369	0.0829589023
0.0830768483	0.0830768483	0.2496429164
0.9168669198	0.9168669198	0.9159382391
0.9166930472	0.0833069528	0.0827491627
0.0833069528	0.9166930472	0.0827491627
0.0831330802	0.0831330802	0.9159382391
