Initial State for aP_0_C3vfar_tdC_sc3k2c
   1.00000000000000     
    17.5612749176088023    0.0000000000000000    0.0000000000000000
     0.0000000000000000   17.5612749176088023    0.0000000000000000
     0.0000000000000000    0.0000000000000000   17.5612749176088023
   In   P 
   107   109
Direct
  0.4504440359938168  0.4504519781795063  0.4504519781795063
  0.5665096080541202  0.5664782739778055  0.5664782739778055
  0.5911152820615847  0.4193824045280186  0.4193824045280186
  0.4194346004338518  0.5910586967212205  0.4194061406982965
  0.4194346004338518  0.4194061406982965  0.5910586967212205
  0.6626914034968263  0.6626467749334789  0.5077300306568909
  0.6626914034968263  0.5077300306568909  0.6626467749334789
  0.5077370778430665  0.6626080325395596  0.6626080325395596
  0.6642750292964167  0.5019729971282538  0.3373917849867140
  0.6642750292964167  0.3373917849867140  0.5019729971282538
  0.5019942468600010  0.6642108604824541  0.3374431846142083
  0.5019942468600010  0.3374431846142083  0.6642108604824541
  0.3373898532650316  0.6641806298859264  0.5020218817570964
  0.3373898532650316  0.5020218817570964  0.6641806298859264
  0.5007472185798884  0.3321203535189471  0.3321203535189471
  0.3320945376615533  0.5007932832696215  0.3321540988017216
  0.3320945376615533  0.3321540988017216  0.5007932832696215
  0.7491594646221185  0.5862404698085885  0.4197884254709326
  0.7491594646221185  0.4197884254709326  0.5862404698085885
  0.5859914795236295  0.7492431474528026  0.4197868849611328
  0.5859914795236295  0.4197868849611328  0.7492431474528026
  0.4197318582397220  0.7492242419800164  0.5860388418644435
  0.4197318582397220  0.5860388418644435  0.7492242419800164
  0.5828310011930632  0.5827998512329613  0.2476511478207717
  0.5828310011930632  0.2476511478207717  0.5827998512329613
  0.2477027409788297  0.5828382074713768  0.5828382074713768
  0.4160698510246256  0.4160469274391413  0.2491094531487290
  0.4160698510246256  0.2491094531487290  0.4160469274391413
  0.2489221722244253  0.4160722944466979  0.4160722944466979
  0.8333312827377911  0.4998419361719079  0.4998419361719079
  0.4998798659467611  0.8334677542310946  0.4998679780265991
  0.4998798659467611  0.4998679780265991  0.8334677542310946
  0.4992549209901253  0.4992053344379793  0.1661513846148264
  0.4992549209901253  0.1661513846148264  0.4992053344379793
  0.1665097740412640  0.4993703260093180  0.4993703260093180
  0.7492009330672856  0.7492195070144005  0.5828028487534721
  0.7492009330672856  0.5828028487534721  0.7492195070144005
  0.5827116636842539  0.7492304362175647  0.7492304362175647
  0.7468690746814317  0.4180607472573291  0.2528046138517808
  0.7468690746814317  0.2528046138517808  0.4180607472573291
  0.4182664643107149  0.7470532781765901  0.2526857477680015
  0.2526982566357816  0.7470818983805994  0.4182673342212953
  0.4182664643107149  0.2526857477680015  0.7470532781765901
  0.2526982566357816  0.4182673342212953  0.7470818983805994
  0.5836770062019628  0.2490683890583812  0.2490683890583812
  0.2489870414604936  0.5836398331424960  0.2489676154074941
  0.2489870414604936  0.2489676154074941  0.5836398331424960
  0.8357135176776509  0.6698642156143725  0.6698642156143725
  0.6698599874072407  0.8358391083389629  0.6698477164220084
  0.6698599874072407  0.6698477164220084  0.8358391083389629
  0.8330818884877675  0.6667206096689015  0.3339909278878722
  0.6637819070629227  0.8360396385567985  0.3315378862513425
  0.8330818884877675  0.3339909278878722  0.6667206096689015
  0.6637819070629227  0.3315378862513425  0.8360396385567985
  0.3315046637694929  0.8360125998973468  0.6639188407674098
  0.3315046637694929  0.6639188407674098  0.8360125998973468
  0.8349165910922045  0.3310319929880043  0.3310319929880043
  0.6668163568820916  0.6668317149002821  0.1607033663926559
  0.6668163568820916  0.1607033663926559  0.6668317149002821
  0.3309603200559921  0.8349753229852979  0.3309735853856741
  0.3309603200559921  0.3309735853856741  0.8349753229852979
  0.1608116128744108  0.6668176734506701  0.6668176734506701
  0.6696983698215698  0.3313021344671883  0.1644657114670311
  0.6696983698215698  0.1644657114670311  0.3313021344671883
  0.3311297127870340  0.6696444153601809  0.1645890159018887
  0.1645921928055861  0.6696084885359160  0.3311343396990609
  0.3311297127870340  0.1645890159018887  0.6696444153601809
  0.1645921928055861  0.3311343396990609  0.6696084885359160
  0.3330553229322435  0.3330141030808312  0.1603287108425233
  0.3330553229322435  0.1603287108425233  0.3330141030808312
  0.1603635778520986  0.3329036159998531  0.3329036159998531
  0.9216985915929833  0.5834650527381611  0.5834650527381611
  0.5834903449689636  0.9216457902654834  0.5834750864612638
  0.5834903449689636  0.5834750864612638  0.9216457902654834
  0.9224178757096501  0.4169101767783349  0.4169101767783349
  0.7526954113789428  0.7526069459507201  0.2476710784481275
  0.7526954113789428  0.2476710784481275  0.7526069459507201
  0.4168351737206427  0.9213546390908044  0.4168478060644157
  0.4168351737206427  0.4168478060644157  0.9213546390908044
  0.2473553723249528  0.7526134928869056  0.7526134928869056
  0.5837387820140735  0.4169732024825517  0.0780927402345689
  0.4169942798223345  0.5837380602006365  0.0781193510084899
  0.5837387820140735  0.0780927402345689  0.4169732024825517
  0.4169942798223345  0.0781193510084899  0.5837380602006365
  0.0779398741611144  0.5833373406206992  0.4168906732576640
  0.0779398741611144  0.4168906732576640  0.5833373406206992
  0.2470630485696339  0.2471506191938767  0.2471506191938767
  0.8351852863782282  0.8354584944060474  0.5030856474426517
  0.8351852863782282  0.5030856474426517  0.8354584944060474
  0.5029671858684631  0.8354244407028123  0.8354244407028123
  0.8313613486743305  0.4994490847674792  0.1630956018839486
  0.8313613486743305  0.1630956018839486  0.4994490847674792
  0.5016977619543508  0.8338913672927516  0.1661470638915009
  0.5016977619543508  0.1661470638915009  0.8338913672927516
  0.1661704687835272  0.8338803812014468  0.5016787779030208
  0.1661704687835272  0.5016787779030208  0.8338803812014468
  0.4974189942720744  0.1641281679712573  0.1641281679712573
  0.1640814849333611  0.4974512491810223  0.1642497528366824
  0.1640814849333611  0.1642497528366824  0.4974512491810223
  0.9219360705032471  0.7496015756583918  0.4172268207568958
  0.7498927769834021  0.9219444813647459  0.4173993764765317
  0.9219360705032471  0.4172268207568958  0.7496015756583918
  0.7498927769834021  0.4173993764765317  0.9219444813647459
  0.4174431282250864  0.9218835688858474  0.7498402132027662
  0.4174431282250864  0.7498402132027662  0.9218835688858474
  0.9213444034915904  0.5832982170071985  0.2509308676942557
  0.9213444034915904  0.2509308676942557  0.5832982170071985
  0.5826813124597496  0.9202093312199539  0.2508899671811078
  0.5826813124597496  0.2508899671811078  0.9202093312199539
  0.2507669463623933  0.9202648073595245  0.5826122046454214
  0.2507669463623933  0.5826122046454214  0.9202648073595245
  0.7491329074184045  0.5823389126957697  0.0787356318624673
  0.5826266280441970  0.7492130560470753  0.0788648893098737
  0.7491329074184045  0.0787356318624673  0.5823389126957697
  0.5826266280441970  0.0788648893098737  0.7492130560470753
  0.0788620704698389  0.7492347584449185  0.5826682677499406
  0.0788620704698389  0.5826682677499406  0.7492347584449185
  0.4172004392125775  0.2502409857236725  0.0783633711521670
  0.4172004392125775  0.0783633711521670  0.2502409857236725
  0.2502087501826473  0.4171802454937499  0.0782918791815535
  0.2502087501826473  0.0782918791815535  0.4171802454937499
  0.0784181793581087  0.4171581245835159  0.2505582911083026
  0.0784181793581087  0.2505582911083026  0.4171581245835159
  0.0022206824456656  0.6690842853197466  0.5024233501469925
  0.0022206824456656  0.5024233501469925  0.6690842853197466
  0.6689889025916509  0.0019642817501568  0.5025764519068203
  0.5024392057995303  0.0021488204251705  0.6691025083728057
  0.6689889025916509  0.5025764519068203  0.0019642817501568
  0.5024392057995303  0.6691025083728057  0.0021488204251705
  0.0021169020640788  0.4978061537395258  0.3304900984165304
  0.0021169020640788  0.3304900984165304  0.4978061537395258
  0.5001309888126425  0.9997525646062754  0.3281643506163064
  0.3282171148548337  0.9997810447314487  0.5001250340502292
  0.5001309888126425  0.3281643506163064  0.9997525646062754
  0.3282171148548337  0.5001250340502292  0.9997810447314487
  0.9193001039983471  0.7521506455917522  0.7521506455917522
  0.7521599252317455  0.9193220192376441  0.7520914165660909
  0.7521599252317455  0.7520914165660909  0.9193220192376441
  0.9178597700276284  0.2486901687318010  0.2486901687318010
  0.2485946194210820  0.9177187861042301  0.2487880496563409
  0.2485946194210820  0.2487880496563409  0.9177187861042301
  0.7520618541636540  0.2489046880211480  0.0812768735553277
  0.7520618541636540  0.0812768735553277  0.2489046880211480
  0.2489091361902395  0.7518427164384904  0.0813614211672415
  0.0810901318866197  0.7515441476689011  0.2486468362457606
  0.2489091361902395  0.0813614211672415  0.7518427164384904
  0.0810901318866197  0.2486468362457606  0.7515441476689011
  0.8330885795794253  0.8330120043150111  0.8330120043150111
  0.8348583500983735  0.8350315295875486  0.1647780266511447
  0.8348583500983735  0.1647780266511447  0.8350315295875486
  0.1645699256906281  0.8350652478015296  0.8350652478015296
  0.8328952610516798  0.1670015741725040  0.1670015741725040
  0.1669267132985524  0.8330499972810955  0.1668308900654155
  0.1669267132985524  0.1668308900654155  0.8330499972810955
  0.1642880553692251  0.1643506803769900  0.1643506803769900
  0.9185385796359352  0.9183966950600562  0.5848897262244332
  0.9185385796359352  0.5848897262244332  0.9183966950600562
  0.5848588782294475  0.9184659878329711  0.9184659878329711
  0.9176300073290743  0.4148502766912784  0.0812798229928770
  0.9176300073290743  0.0812798229928770  0.4148502766912784
  0.4149144927007104  0.9178268431103516  0.0811318745200868
  0.0810949818142130  0.9178366702124761  0.4150449051120209
  0.4149144927007104  0.0811318745200868  0.9178268431103516
  0.0810949818142130  0.4150449051120209  0.9178366702124761
  0.5847492936940893  0.0805808178463038  0.0805808178463038
  0.0802841643201489  0.5850852005742286  0.0810397495995318
  0.0802841643201489  0.0810397495995318  0.5850852005742286
 -0.0004562017398899  0.8328425185500535  0.6660128018339085
 -0.0004562017398899  0.6660128018339085  0.8328425185500535
  0.8326499338921887 -0.0004100214018358  0.6658293996792951
  0.8326499338921887  0.6658293996792951 -0.0004100214018358
  0.6660624569486757 -0.0004222424725253  0.8329084514911379
  0.6660624569486757  0.8329084514911379 -0.0004222424725253
  0.0032274306498223  0.8349423095541171  0.3320122927368044
  0.8350860453174795  0.0029514576889391  0.3319733065012622
  0.0032274306498223  0.3320122927368044  0.8349423095541171
  0.8350860453174795  0.3319733065012622  0.0029514576889391
  0.0029574535215968  0.6681838441811282  0.1652590347530072
  0.3320464439668736  0.0031875225234046  0.8349940233282117
  0.3320464439668736  0.8349940233282117  0.0031875225234046
  0.6659540730587108  0.0004903026019418  0.1678810101437236
  0.0029574535215968  0.1652590347530072  0.6681838441811282
  0.6659540730587108  0.1678810101437236  0.0004903026019418
  0.9986950277736986  0.3339911767303740  0.1674746060527868
  0.1679414720687817  0.0004132278513638  0.6660450574929816
  0.9986950277736986  0.1674746060527868  0.3339911767303740
  0.1679414720687817  0.6660450574929816  0.0004132278513638
  0.3338973300317548  0.9987304901411120  0.1673357898000844
  0.1674053474714828  0.9987696573755004  0.3338892972517691
  0.3338973300317548  0.1673357898000844  0.9987304901411120
  0.1674053474714828  0.3338892972517691  0.9987696573755004
  0.9162192941913923  0.9164280988976286  0.2507529047229911
  0.9162192941913923  0.2507529047229911  0.9164280988976286
  0.9168226627194976  0.7499952498231650  0.0843723795782776
  0.2508406910333009  0.9162928440004677  0.9162928440004677
  0.7504191218309725  0.9164605036137554  0.0837435432474588
  0.9168226627194976  0.0843723795782776  0.7499952498231650
  0.7504191218309725  0.0837435432474588  0.9164605036137554
  0.0838225425673235  0.9164099674717067  0.7505136325886173
  0.0838225425673235  0.7505136325886173  0.9164099674717067
  0.2494858060215016  0.0835453970451104  0.0835453970451104
  0.0836572113469541  0.2494767512615687  0.0835774191559094
  0.0836572113469541  0.0835774191559094  0.2494767512615687
  0.9995851164600809  0.9996140567250185  0.4999117040491701
  0.9995851164600809  0.4999117040491701  0.9996140567250185
  0.5000779687437352  0.9996606549144778  0.9996606549144778
  0.9169000152053073  0.9171349325743549  0.9171349325743549
  0.9164997263070707  0.0831564806666161  0.0831564806666161
  0.0831728311844851  0.9163702719858795  0.0832695809693129
  0.0831728311844851  0.0832695809693129  0.9163702719858795
  0.0003542233902991  0.0001522961907283  0.8334623091234816
  0.0003542233902991  0.8334623091234816  0.0001522961907283
  0.8334359028426112  0.0001175538190135  0.0001175538190135
  0.0003012033789280  0.0003456253152716  0.1666826648054644
  0.0003012033789280  0.1666826648054644  0.0003456253152716
  0.1668387092461774  0.0002340337219204  0.0002340337219204
 
  0.00000000E+00  0.00000000E+00  0.00000000E+00
  0.00000000E+00  0.00000000E+00  0.00000000E+00
  0.00000000E+00  0.00000000E+00  0.00000000E+00
  0.00000000E+00  0.00000000E+00  0.00000000E+00
  0.00000000E+00  0.00000000E+00  0.00000000E+00
  0.00000000E+00  0.00000000E+00  0.00000000E+00
  0.00000000E+00  0.00000000E+00  0.00000000E+00
  0.00000000E+00  0.00000000E+00  0.00000000E+00
  0.00000000E+00  0.00000000E+00  0.00000000E+00
  0.00000000E+00  0.00000000E+00  0.00000000E+00
  0.00000000E+00  0.00000000E+00  0.00000000E+00
  0.00000000E+00  0.00000000E+00  0.00000000E+00
  0.00000000E+00  0.00000000E+00  0.00000000E+00
  0.00000000E+00  0.00000000E+00  0.00000000E+00
  0.00000000E+00  0.00000000E+00  0.00000000E+00
  0.00000000E+00  0.00000000E+00  0.00000000E+00
  0.00000000E+00  0.00000000E+00  0.00000000E+00
  0.00000000E+00  0.00000000E+00  0.00000000E+00
  0.00000000E+00  0.00000000E+00  0.00000000E+00
  0.00000000E+00  0.00000000E+00  0.00000000E+00
  0.00000000E+00  0.00000000E+00  0.00000000E+00
  0.00000000E+00  0.00000000E+00  0.00000000E+00
  0.00000000E+00  0.00000000E+00  0.00000000E+00
  0.00000000E+00  0.00000000E+00  0.00000000E+00
  0.00000000E+00  0.00000000E+00  0.00000000E+00
  0.00000000E+00  0.00000000E+00  0.00000000E+00
  0.00000000E+00  0.00000000E+00  0.00000000E+00
  0.00000000E+00  0.00000000E+00  0.00000000E+00
  0.00000000E+00  0.00000000E+00  0.00000000E+00
  0.00000000E+00  0.00000000E+00  0.00000000E+00
  0.00000000E+00  0.00000000E+00  0.00000000E+00
  0.00000000E+00  0.00000000E+00  0.00000000E+00
  0.00000000E+00  0.00000000E+00  0.00000000E+00
  0.00000000E+00  0.00000000E+00  0.00000000E+00
  0.00000000E+00  0.00000000E+00  0.00000000E+00
  0.00000000E+00  0.00000000E+00  0.00000000E+00
  0.00000000E+00  0.00000000E+00  0.00000000E+00
  0.00000000E+00  0.00000000E+00  0.00000000E+00
  0.00000000E+00  0.00000000E+00  0.00000000E+00
  0.00000000E+00  0.00000000E+00  0.00000000E+00
  0.00000000E+00  0.00000000E+00  0.00000000E+00
  0.00000000E+00  0.00000000E+00  0.00000000E+00
  0.00000000E+00  0.00000000E+00  0.00000000E+00
  0.00000000E+00  0.00000000E+00  0.00000000E+00
  0.00000000E+00  0.00000000E+00  0.00000000E+00
  0.00000000E+00  0.00000000E+00  0.00000000E+00
  0.00000000E+00  0.00000000E+00  0.00000000E+00
  0.00000000E+00  0.00000000E+00  0.00000000E+00
  0.00000000E+00  0.00000000E+00  0.00000000E+00
  0.00000000E+00  0.00000000E+00  0.00000000E+00
  0.00000000E+00  0.00000000E+00  0.00000000E+00
  0.00000000E+00  0.00000000E+00  0.00000000E+00
  0.00000000E+00  0.00000000E+00  0.00000000E+00
  0.00000000E+00  0.00000000E+00  0.00000000E+00
  0.00000000E+00  0.00000000E+00  0.00000000E+00
  0.00000000E+00  0.00000000E+00  0.00000000E+00
  0.00000000E+00  0.00000000E+00  0.00000000E+00
  0.00000000E+00  0.00000000E+00  0.00000000E+00
  0.00000000E+00  0.00000000E+00  0.00000000E+00
  0.00000000E+00  0.00000000E+00  0.00000000E+00
  0.00000000E+00  0.00000000E+00  0.00000000E+00
  0.00000000E+00  0.00000000E+00  0.00000000E+00
  0.00000000E+00  0.00000000E+00  0.00000000E+00
  0.00000000E+00  0.00000000E+00  0.00000000E+00
  0.00000000E+00  0.00000000E+00  0.00000000E+00
  0.00000000E+00  0.00000000E+00  0.00000000E+00
  0.00000000E+00  0.00000000E+00  0.00000000E+00
  0.00000000E+00  0.00000000E+00  0.00000000E+00
  0.00000000E+00  0.00000000E+00  0.00000000E+00
  0.00000000E+00  0.00000000E+00  0.00000000E+00
  0.00000000E+00  0.00000000E+00  0.00000000E+00
  0.00000000E+00  0.00000000E+00  0.00000000E+00
  0.00000000E+00  0.00000000E+00  0.00000000E+00
  0.00000000E+00  0.00000000E+00  0.00000000E+00
  0.00000000E+00  0.00000000E+00  0.00000000E+00
  0.00000000E+00  0.00000000E+00  0.00000000E+00
  0.00000000E+00  0.00000000E+00  0.00000000E+00
  0.00000000E+00  0.00000000E+00  0.00000000E+00
  0.00000000E+00  0.00000000E+00  0.00000000E+00
  0.00000000E+00  0.00000000E+00  0.00000000E+00
  0.00000000E+00  0.00000000E+00  0.00000000E+00
  0.00000000E+00  0.00000000E+00  0.00000000E+00
  0.00000000E+00  0.00000000E+00  0.00000000E+00
  0.00000000E+00  0.00000000E+00  0.00000000E+00
  0.00000000E+00  0.00000000E+00  0.00000000E+00
  0.00000000E+00  0.00000000E+00  0.00000000E+00
  0.00000000E+00  0.00000000E+00  0.00000000E+00
  0.00000000E+00  0.00000000E+00  0.00000000E+00
  0.00000000E+00  0.00000000E+00  0.00000000E+00
  0.00000000E+00  0.00000000E+00  0.00000000E+00
  0.00000000E+00  0.00000000E+00  0.00000000E+00
  0.00000000E+00  0.00000000E+00  0.00000000E+00
  0.00000000E+00  0.00000000E+00  0.00000000E+00
  0.00000000E+00  0.00000000E+00  0.00000000E+00
  0.00000000E+00  0.00000000E+00  0.00000000E+00
  0.00000000E+00  0.00000000E+00  0.00000000E+00
  0.00000000E+00  0.00000000E+00  0.00000000E+00
  0.00000000E+00  0.00000000E+00  0.00000000E+00
  0.00000000E+00  0.00000000E+00  0.00000000E+00
  0.00000000E+00  0.00000000E+00  0.00000000E+00
  0.00000000E+00  0.00000000E+00  0.00000000E+00
  0.00000000E+00  0.00000000E+00  0.00000000E+00
  0.00000000E+00  0.00000000E+00  0.00000000E+00
  0.00000000E+00  0.00000000E+00  0.00000000E+00
  0.00000000E+00  0.00000000E+00  0.00000000E+00
  0.00000000E+00  0.00000000E+00  0.00000000E+00
  0.00000000E+00  0.00000000E+00  0.00000000E+00
  0.00000000E+00  0.00000000E+00  0.00000000E+00
  0.00000000E+00  0.00000000E+00  0.00000000E+00
  0.00000000E+00  0.00000000E+00  0.00000000E+00
  0.00000000E+00  0.00000000E+00  0.00000000E+00
  0.00000000E+00  0.00000000E+00  0.00000000E+00
  0.00000000E+00  0.00000000E+00  0.00000000E+00
  0.00000000E+00  0.00000000E+00  0.00000000E+00
  0.00000000E+00  0.00000000E+00  0.00000000E+00
  0.00000000E+00  0.00000000E+00  0.00000000E+00
  0.00000000E+00  0.00000000E+00  0.00000000E+00
  0.00000000E+00  0.00000000E+00  0.00000000E+00
  0.00000000E+00  0.00000000E+00  0.00000000E+00
  0.00000000E+00  0.00000000E+00  0.00000000E+00
  0.00000000E+00  0.00000000E+00  0.00000000E+00
  0.00000000E+00  0.00000000E+00  0.00000000E+00
  0.00000000E+00  0.00000000E+00  0.00000000E+00
  0.00000000E+00  0.00000000E+00  0.00000000E+00
  0.00000000E+00  0.00000000E+00  0.00000000E+00
  0.00000000E+00  0.00000000E+00  0.00000000E+00
  0.00000000E+00  0.00000000E+00  0.00000000E+00
  0.00000000E+00  0.00000000E+00  0.00000000E+00
  0.00000000E+00  0.00000000E+00  0.00000000E+00
  0.00000000E+00  0.00000000E+00  0.00000000E+00
  0.00000000E+00  0.00000000E+00  0.00000000E+00
  0.00000000E+00  0.00000000E+00  0.00000000E+00
  0.00000000E+00  0.00000000E+00  0.00000000E+00
  0.00000000E+00  0.00000000E+00  0.00000000E+00
  0.00000000E+00  0.00000000E+00  0.00000000E+00
  0.00000000E+00  0.00000000E+00  0.00000000E+00
  0.00000000E+00  0.00000000E+00  0.00000000E+00
  0.00000000E+00  0.00000000E+00  0.00000000E+00
  0.00000000E+00  0.00000000E+00  0.00000000E+00
  0.00000000E+00  0.00000000E+00  0.00000000E+00
  0.00000000E+00  0.00000000E+00  0.00000000E+00
  0.00000000E+00  0.00000000E+00  0.00000000E+00
  0.00000000E+00  0.00000000E+00  0.00000000E+00
  0.00000000E+00  0.00000000E+00  0.00000000E+00
  0.00000000E+00  0.00000000E+00  0.00000000E+00
  0.00000000E+00  0.00000000E+00  0.00000000E+00
  0.00000000E+00  0.00000000E+00  0.00000000E+00
  0.00000000E+00  0.00000000E+00  0.00000000E+00
  0.00000000E+00  0.00000000E+00  0.00000000E+00
  0.00000000E+00  0.00000000E+00  0.00000000E+00
  0.00000000E+00  0.00000000E+00  0.00000000E+00
  0.00000000E+00  0.00000000E+00  0.00000000E+00
  0.00000000E+00  0.00000000E+00  0.00000000E+00
  0.00000000E+00  0.00000000E+00  0.00000000E+00
  0.00000000E+00  0.00000000E+00  0.00000000E+00
  0.00000000E+00  0.00000000E+00  0.00000000E+00
  0.00000000E+00  0.00000000E+00  0.00000000E+00
  0.00000000E+00  0.00000000E+00  0.00000000E+00
  0.00000000E+00  0.00000000E+00  0.00000000E+00
  0.00000000E+00  0.00000000E+00  0.00000000E+00
  0.00000000E+00  0.00000000E+00  0.00000000E+00
  0.00000000E+00  0.00000000E+00  0.00000000E+00
  0.00000000E+00  0.00000000E+00  0.00000000E+00
  0.00000000E+00  0.00000000E+00  0.00000000E+00
  0.00000000E+00  0.00000000E+00  0.00000000E+00
  0.00000000E+00  0.00000000E+00  0.00000000E+00
  0.00000000E+00  0.00000000E+00  0.00000000E+00
  0.00000000E+00  0.00000000E+00  0.00000000E+00
  0.00000000E+00  0.00000000E+00  0.00000000E+00
  0.00000000E+00  0.00000000E+00  0.00000000E+00
  0.00000000E+00  0.00000000E+00  0.00000000E+00
  0.00000000E+00  0.00000000E+00  0.00000000E+00
  0.00000000E+00  0.00000000E+00  0.00000000E+00
  0.00000000E+00  0.00000000E+00  0.00000000E+00
  0.00000000E+00  0.00000000E+00  0.00000000E+00
  0.00000000E+00  0.00000000E+00  0.00000000E+00
  0.00000000E+00  0.00000000E+00  0.00000000E+00
  0.00000000E+00  0.00000000E+00  0.00000000E+00
  0.00000000E+00  0.00000000E+00  0.00000000E+00
  0.00000000E+00  0.00000000E+00  0.00000000E+00
  0.00000000E+00  0.00000000E+00  0.00000000E+00
  0.00000000E+00  0.00000000E+00  0.00000000E+00
  0.00000000E+00  0.00000000E+00  0.00000000E+00
  0.00000000E+00  0.00000000E+00  0.00000000E+00
  0.00000000E+00  0.00000000E+00  0.00000000E+00
  0.00000000E+00  0.00000000E+00  0.00000000E+00
  0.00000000E+00  0.00000000E+00  0.00000000E+00
  0.00000000E+00  0.00000000E+00  0.00000000E+00
  0.00000000E+00  0.00000000E+00  0.00000000E+00
  0.00000000E+00  0.00000000E+00  0.00000000E+00
  0.00000000E+00  0.00000000E+00  0.00000000E+00
  0.00000000E+00  0.00000000E+00  0.00000000E+00
  0.00000000E+00  0.00000000E+00  0.00000000E+00
  0.00000000E+00  0.00000000E+00  0.00000000E+00
  0.00000000E+00  0.00000000E+00  0.00000000E+00
  0.00000000E+00  0.00000000E+00  0.00000000E+00
  0.00000000E+00  0.00000000E+00  0.00000000E+00
  0.00000000E+00  0.00000000E+00  0.00000000E+00
  0.00000000E+00  0.00000000E+00  0.00000000E+00
  0.00000000E+00  0.00000000E+00  0.00000000E+00
  0.00000000E+00  0.00000000E+00  0.00000000E+00
  0.00000000E+00  0.00000000E+00  0.00000000E+00
  0.00000000E+00  0.00000000E+00  0.00000000E+00
  0.00000000E+00  0.00000000E+00  0.00000000E+00
  0.00000000E+00  0.00000000E+00  0.00000000E+00
  0.00000000E+00  0.00000000E+00  0.00000000E+00
  0.00000000E+00  0.00000000E+00  0.00000000E+00
  0.00000000E+00  0.00000000E+00  0.00000000E+00
  0.00000000E+00  0.00000000E+00  0.00000000E+00
  0.00000000E+00  0.00000000E+00  0.00000000E+00
  0.00000000E+00  0.00000000E+00  0.00000000E+00
  0.00000000E+00  0.00000000E+00  0.00000000E+00
  0.00000000E+00  0.00000000E+00  0.00000000E+00
  0.00000000E+00  0.00000000E+00  0.00000000E+00
  0.00000000E+00  0.00000000E+00  0.00000000E+00
  0.00000000E+00  0.00000000E+00  0.00000000E+00
