# FitSNAP generated Hash: 4ac5657ce6fcffbf5a73567917f17486
pair_style hybrid/overlay zbl 4.0 4.8 mliap model mliappy FitTorch_Pytorch.pt descriptor sna Ta_pot.mliap.descriptor
pair_coeff * * zbl 73 73
pair_coeff * * mliap Ta