# This file was generated by FitSNAP.
# Hash: d10a5bb28c1d7c690ec3cf61cc128ef1

pair_style hybrid/overlay zbl 4.0 4.8 snap
pair_coeff * * zbl 73 73
pair_coeff * * snap Ta_pot.snapcoeff Ta_pot.snapparam Ta