Initial State for  iP_0_001iC2v_tdC_sc3k
   1.00000000000000     
    17.5612749176088023    0.0000000000000000    0.0000000000000000
     0.0000000000000000   17.5612749176088023    0.0000000000000000
     0.0000000000000000    0.0000000000000000   17.5612749176088023
   In   P 
   108   109
Direct
  0.5000000000000000  0.5000000000000000  0.4697560813278085
  0.6701104651407951  0.6701104651407951  0.4961428774307576
  0.6708955029112265  0.5006695098497984  0.6699815342300748
  0.5006695098497984  0.6708955029112265  0.6699815342300748
  0.6700897860754775  0.5013634061709007  0.3269957604623655
  0.6651496669816969  0.3348503330183031  0.5007841820755446
  0.5013634061709007  0.6700897860754775  0.3269957604623655
  0.4993304901502016  0.3291044970887735  0.6699815342300748
  0.3348503330183031  0.6651496669816969  0.5007841820755446
  0.3291044970887735  0.4993304901502016  0.6699815342300748
  0.4986365938290994  0.3299102139245224  0.3269957604623655
  0.3299102139245224  0.4986365938290994  0.3269957604623655
  0.3298895348592051  0.3298895348592051  0.4961428774307576
  0.8335130119594952  0.5003303646700682  0.4989739656495524
  0.5003303646700682  0.8335130119594952  0.4989739656495524
  0.5000000000000000  0.5000000000000000  0.8321505213345173
  0.5000000000000000  0.5000000000000000  0.1641071588760036
  0.4996696353299317  0.1664869880405048  0.4989739656495524
  0.1664869880405048  0.4996696353299317  0.4989739656495524
  0.8334742119917180  0.6668473255137016  0.6662458418281265
  0.6668473255137016  0.8334742119917180  0.6662458418281265
  0.6674050986085629  0.6674050986085629  0.8339915979919018
  0.8342069535134383  0.6672667483467504  0.3317982464019535
  0.6672667483467504  0.8342069535134383  0.3317982464019535
  0.8328564133296663  0.3334487523986656  0.6660189088104524
  0.6663123537702339  0.3336876462297660  0.8337206026530428
  0.3334487523986656  0.8328564133296663  0.6660189088104524
  0.3336876462297660  0.6663123537702339  0.8337206026530428
  0.8331816547557255  0.3331098113677546  0.3330961208644649
  0.6677326508937993  0.6677326508937993  0.1642727889963807
  0.6665512476013343  0.1671435866703338  0.6660189088104524
  0.3331098113677546  0.8331816547557255  0.3330961208644649
  0.3325949013914371  0.3325949013914371  0.8339915979919018
  0.1671435866703338  0.6665512476013343  0.6660189088104524
  0.6669480606902014  0.3330519393097987  0.1647460536855007
  0.6668901886322455  0.1668183452442746  0.3330961208644649
  0.3330519393097987  0.6669480606902014  0.1647460536855007
  0.1668183452442746  0.6668901886322455  0.3330961208644649
  0.3331526744862984  0.1665257880082819  0.6662458418281265
  0.1665257880082819  0.3331526744862984  0.6662458418281265
  0.3322673491062007  0.3322673491062007  0.1642727889963807
  0.3327332516532496  0.1657930464865616  0.3317982464019535
  0.1657930464865616  0.3327332516532496  0.3317982464019535
  0.8345374373123768  0.8345374373123768  0.4993671967838966
  0.8355144808140540  0.4999141972227568  0.8348768301163906
  0.4999141972227568  0.8355144808140540  0.8348768301163906
  0.8346633863646552  0.5003969397156618  0.1645620619454812
  0.8327478890237057  0.1672521109762942  0.4991789572259370
  0.5003969397156618  0.8346633863646552  0.1645620619454812
  0.5000858027772431  0.1644855191859458  0.8348768301163906
  0.1672521109762942  0.8327478890237057  0.4991789572259370
  0.1644855191859458  0.5000858027772431  0.8348768301163906
  0.4996030602843382  0.1653366136353447  0.1645620619454812
  0.1653366136353447  0.4996030602843382  0.1645620619454812
  0.1654625626876231  0.1654625626876231  0.4993671967838966
  0.0000535596072507  0.6666995621636410  0.4993436461352901
 -0.0000000000000000  0.5000000000000000  0.6659379974434504
  0.6666995621636410  0.0000535596072507  0.4993436461352901
  0.5000000000000000  0.0000000000000000  0.6659379974434504
  0.6670959920378028  0.5001650683007512  0.9987722573427669
  0.5001650683007512  0.6670959920378028  0.9987722573427669
 -0.0000000000000000  0.5000000000000000  0.3324263209612176
  0.9999464403927493  0.3333004378363588  0.4993436461352901
  0.5000000000000000  0.0000000000000000  0.3324263209612176
  0.3333004378363588  0.9999464403927493  0.4993436461352901
  0.4998349316992488  0.3329040079621972  0.9987722573427669
  0.3329040079621972  0.4998349316992488  0.9987722573427669
  0.8336926961940947  0.8336926961940947  0.8324504144942717
  0.8339001213182483  0.8339001213182483  0.1659248983528484
  0.8331888312039427  0.1668111687960574  0.8323178195879500
  0.1668111687960574  0.8331888312039427  0.8323178195879500
  0.8334979585767616  0.1665020414232384  0.1661575730513661
  0.1665020414232384  0.8334979585767616  0.1661575730513661
  0.1663073038059054  0.1663073038059054  0.8324504144942717
  0.1660998786817517  0.1660998786817517  0.1659248983528484
  0.0004027911229696  0.8333859222883558  0.6658309843567676
  0.0002706551826200  0.6670196264303208  0.8322466114037963
  0.8333859222883558  0.0004027911229696  0.6658309843567676
  0.8342261687856103  0.6673414199148218  0.9993609560549674
  0.6670196264303208  0.0002706551826200  0.8322466114037963
  0.6673414199148218  0.8342261687856103  0.9993609560549674
  0.0002398770263290  0.8335380165301224  0.3327769786199264
  0.8335380165301224  0.0002398770263290  0.3327769786199264
  0.9997293448173800  0.3329803735696793  0.8322466114037963
  0.8337346544942725  0.3328824761483835  0.9993072990535740
  0.0004334391954995  0.6671522262618365  0.1661998392902524
  0.3329803735696793  0.9997293448173800  0.8322466114037963
  0.3328824761483835  0.8337346544942725  0.9993072990535740
  0.6671522262618365  0.0004334391954995  0.1661998392902524
  0.9995972088770304  0.1666140777116440  0.6658309843567676
  0.6671175238516165  0.1662653455057275  0.9993072990535740
  0.9995665608045003  0.3328477737381637  0.1661998392902524
  0.1666140777116440  0.9995972088770304  0.6658309843567676
  0.9997601229736709  0.1664619834698775  0.3327769786199264
  0.1662653455057275  0.6671175238516165  0.9993072990535740
  0.3328477737381637  0.9995665608045003  0.1661998392902524
  0.1664619834698775  0.9997601229736709  0.3327769786199264
  0.3326585800851781  0.1657738312143897  0.9993609560549674
  0.1657738312143897  0.3326585800851781  0.9993609560549674
 -0.0000000000000000  0.0000000000000000  0.4991035820216987
 -0.0000000000000000  0.5000000000000000  0.0000535777510627
  0.5000000000000000  0.0000000000000000  0.0000535777510627
 -0.0000000000000000  0.0000000000000000  0.8324270539770244
  0.0001942703399430  0.8335671458093531  0.9991365450615937
  0.8335671458093531  0.0001942703399430  0.9991365450615937
 -0.0000000000000000  0.0000000000000000  0.1659673845042043
  0.9998057296600570  0.1664328541906469  0.9991365450615937
  0.1664328541906469  0.9998057296600570  0.9991365450615937
  0.5000000000000000  0.5000000000000000  0.6054789184548853
  0.5953988779808632  0.5953988779808632  0.5928225162052809
  0.5880582257085879  0.4119417742914122  0.4049990756820765
  0.4119417742914122  0.5880582257085879  0.4049990756820765
  0.4046011220191369  0.4046011220191369  0.5928225162052809
  0.7507882869916737  0.5832207622503688  0.4142213945530689
  0.7498789554205216  0.4176260267026456  0.5826309474725913
  0.5832207622503688  0.7507882869916737  0.4142213945530689
  0.5838032494587767  0.4161967505412231  0.7495921485464502
  0.4176260267026456  0.7498789554205216  0.5826309474725913
  0.4161967505412231  0.5838032494587767  0.7495921485464502
  0.5839018211284835  0.5839018211284835  0.2465212095589810
  0.5823739732973543  0.2501210445794784  0.5826309474725913
  0.2501210445794784  0.5823739732973543  0.5826309474725913
  0.4160981788715165  0.4160981788715165  0.2465212095589810
  0.4167792377496313  0.2492117130083263  0.4142213945530689
  0.2492117130083263  0.4167792377496313  0.4142213945530689
  0.7516154739437996  0.7516154739437996  0.5826541899114476
  0.7532772114417288  0.5843903340138774  0.7531768063416746
  0.5843903340138774  0.7532772114417288  0.7531768063416746
  0.7522114324475594  0.4158182527670874  0.2467439103860652
  0.7488350419949171  0.2511649580050828  0.4167993553529671
  0.4158182527670874  0.7522114324475594  0.2467439103860652
  0.2511649580050828  0.7488350419949171  0.4167993553529671
  0.4156096659861225  0.2467227885582714  0.7531768063416746
  0.2467227885582714  0.4156096659861225  0.7531768063416746
  0.5841817472329126  0.2477885675524406  0.2467439103860652
  0.2477885675524406  0.5841817472329126  0.2467439103860652
  0.2483845260562004  0.2483845260562004  0.5826541899114476
  0.9165787062656487  0.5834700266686507  0.5826205790590305
  0.5834700266686507  0.9165787062656487  0.5826205790590305
  0.5833434408523465  0.5833434408523465  0.9158017547846344
  0.9167189885415883  0.4167152340512681  0.4158658795166376
  0.7504097593804259  0.7504097593804259  0.2488224861211275
  0.7495907349020141  0.2504092650979859  0.7496570817444478
  0.4167152340512681  0.9167189885415883  0.4158658795166376
  0.4166565591476536  0.4166565591476536  0.9158017547846344
  0.2504092650979859  0.7495907349020141  0.7496570817444478
  0.5835845449880520  0.4164154550119480  0.0817204764738885
  0.4164154550119480  0.5835845449880520  0.0817204764738885
  0.5832847659487318  0.0832810114584118  0.4158658795166376
  0.4165299733313491  0.0834212937343512  0.5826205790590305
  0.0832810114584118  0.5832847659487318  0.4158658795166376
  0.0834212937343512  0.4165299733313491  0.5826205790590305
  0.2495902406195742  0.2495902406195742  0.2488224861211275
  0.9169185859383217  0.7502473405000697  0.4159665593106874
  0.7502473405000697  0.9169185859383217  0.4159665593106874
  0.9166398220623341  0.4166744007064906  0.7492248196412260
  0.7507874832936797  0.4163971983276549  0.9165043558015070
  0.4166744007064906  0.9166398220623341  0.7492248196412260
  0.4163971983276549  0.7507874832936797  0.9165043558015070
  0.9171355420475061  0.5834806257572105  0.2488747272331121
  0.9163374960058329  0.2502281004414136  0.5826248164979582
  0.5834806257572105  0.9171355420475061  0.2488747272331121
  0.5836028016723451  0.2492125167063202  0.9165043558015070
  0.2502281004414136  0.9163374960058329  0.5826248164979582
  0.2492125167063202  0.5836028016723451  0.9165043558015070
  0.7506961784424039  0.5835664692291930  0.0818585279798439
  0.5835664692291930  0.7506961784424039  0.0818585279798439
  0.7497718995585861  0.0836625039941670  0.5826248164979582
  0.5833255992935095  0.0833601779376658  0.7492248196412260
  0.0836625039941670  0.7497718995585861  0.5826248164979582
  0.0833601779376658  0.5833255992935095  0.7492248196412260
  0.4164335307708069  0.2493038215575961  0.0818585279798439
  0.4165193742427894  0.0828644579524939  0.2488747272331121
  0.2493038215575961  0.4164335307708069  0.0818585279798439
  0.2497526594999305  0.0830814140616783  0.4159665593106874
  0.0828644579524939  0.4165193742427894  0.2488747272331121
  0.0830814140616783  0.2497526594999305  0.4159665593106874
  0.9169587347897716  0.7504044403760155  0.7491136769186675
  0.7504044403760155  0.9169587347897716  0.7491136769186675
  0.7508889576378808  0.7508889576378808  0.9166708365179952
  0.9163881914131050  0.2497801577439073  0.2497460099749028
  0.2497801577439073  0.9163881914131050  0.2497460099749028
  0.2491110423621193  0.2491110423621193  0.9166708365179952
  0.7505458440551075  0.2494541559448924  0.0823754205043325
  0.7502198422560928  0.0836118085868950  0.2497460099749028
  0.2494541559448924  0.7505458440551075  0.0823754205043325
  0.0836118085868950  0.7502198422560928  0.2497460099749028
  0.2495955596239845  0.0830412652102283  0.7491136769186675
  0.0830412652102283  0.2495955596239845  0.7491136769186675
  0.9173135415166266  0.9173135415166266  0.5829177810289071
  0.9181765868476771  0.5840225792023357  0.9169760353818229
  0.5840225792023357  0.9181765868476771  0.9169760353818229
  0.9171077173480172  0.4161326131703975  0.0823987792732797
  0.9163972632982038  0.0836027367017961  0.4163043478052228
  0.4161326131703975  0.9171077173480172  0.0823987792732797
  0.0836027367017961  0.9163972632982038  0.4163043478052228
  0.4159774207976643  0.0818234131523228  0.9169760353818229
  0.0818234131523228  0.4159774207976643  0.9169760353818229
  0.5838673868296024  0.0828922826519828  0.0823987792732797
  0.0828922826519828  0.5838673868296024  0.0823987792732797
  0.0826864584833733  0.0826864584833733  0.5829177810289071
  0.9169174522587189  0.9169174522587189  0.2496247233468165
  0.9166752916930653  0.2496957596717061  0.9157125528086218
  0.9172410736973168  0.7504959623752282  0.0829541221294878
  0.2496957596717061  0.9166752916930653  0.9157125528086218
  0.7504959623752282  0.9172410736973168  0.0829541221294878
  0.9165947523725632  0.0834052476274368  0.7493020528562099
  0.7503042403282938  0.0833247083069347  0.9157125528086218
  0.0834052476274368  0.9165947523725632  0.7493020528562099
  0.0833247083069347  0.7503042403282938  0.9157125528086218
  0.2495040376247719  0.0827589263026832  0.0829541221294878
  0.0827589263026832  0.2495040376247719  0.0829541221294878
  0.0830825477412811  0.0830825477412811  0.2496247233468165
  0.9168608997965991  0.9168608997965991  0.9159428476567077
  0.9167054583063237  0.0832945416936763  0.0827282641533030
  0.0832945416936763  0.9167054583063237  0.0827282641533030
  0.0831391002034010  0.0831391002034010  0.9159428476567077
 
  0.00000000E+00  0.00000000E+00  0.00000000E+00
  0.00000000E+00  0.00000000E+00  0.00000000E+00
  0.00000000E+00  0.00000000E+00  0.00000000E+00
  0.00000000E+00  0.00000000E+00  0.00000000E+00
  0.00000000E+00  0.00000000E+00  0.00000000E+00
  0.00000000E+00  0.00000000E+00  0.00000000E+00
  0.00000000E+00  0.00000000E+00  0.00000000E+00
  0.00000000E+00  0.00000000E+00  0.00000000E+00
  0.00000000E+00  0.00000000E+00  0.00000000E+00
  0.00000000E+00  0.00000000E+00  0.00000000E+00
  0.00000000E+00  0.00000000E+00  0.00000000E+00
  0.00000000E+00  0.00000000E+00  0.00000000E+00
  0.00000000E+00  0.00000000E+00  0.00000000E+00
  0.00000000E+00  0.00000000E+00  0.00000000E+00
  0.00000000E+00  0.00000000E+00  0.00000000E+00
  0.00000000E+00  0.00000000E+00  0.00000000E+00
  0.00000000E+00  0.00000000E+00  0.00000000E+00
  0.00000000E+00  0.00000000E+00  0.00000000E+00
  0.00000000E+00  0.00000000E+00  0.00000000E+00
  0.00000000E+00  0.00000000E+00  0.00000000E+00
  0.00000000E+00  0.00000000E+00  0.00000000E+00
  0.00000000E+00  0.00000000E+00  0.00000000E+00
  0.00000000E+00  0.00000000E+00  0.00000000E+00
  0.00000000E+00  0.00000000E+00  0.00000000E+00
  0.00000000E+00  0.00000000E+00  0.00000000E+00
  0.00000000E+00  0.00000000E+00  0.00000000E+00
  0.00000000E+00  0.00000000E+00  0.00000000E+00
  0.00000000E+00  0.00000000E+00  0.00000000E+00
  0.00000000E+00  0.00000000E+00  0.00000000E+00
  0.00000000E+00  0.00000000E+00  0.00000000E+00
  0.00000000E+00  0.00000000E+00  0.00000000E+00
  0.00000000E+00  0.00000000E+00  0.00000000E+00
  0.00000000E+00  0.00000000E+00  0.00000000E+00
  0.00000000E+00  0.00000000E+00  0.00000000E+00
  0.00000000E+00  0.00000000E+00  0.00000000E+00
  0.00000000E+00  0.00000000E+00  0.00000000E+00
  0.00000000E+00  0.00000000E+00  0.00000000E+00
  0.00000000E+00  0.00000000E+00  0.00000000E+00
  0.00000000E+00  0.00000000E+00  0.00000000E+00
  0.00000000E+00  0.00000000E+00  0.00000000E+00
  0.00000000E+00  0.00000000E+00  0.00000000E+00
  0.00000000E+00  0.00000000E+00  0.00000000E+00
  0.00000000E+00  0.00000000E+00  0.00000000E+00
  0.00000000E+00  0.00000000E+00  0.00000000E+00
  0.00000000E+00  0.00000000E+00  0.00000000E+00
  0.00000000E+00  0.00000000E+00  0.00000000E+00
  0.00000000E+00  0.00000000E+00  0.00000000E+00
  0.00000000E+00  0.00000000E+00  0.00000000E+00
  0.00000000E+00  0.00000000E+00  0.00000000E+00
  0.00000000E+00  0.00000000E+00  0.00000000E+00
  0.00000000E+00  0.00000000E+00  0.00000000E+00
  0.00000000E+00  0.00000000E+00  0.00000000E+00
  0.00000000E+00  0.00000000E+00  0.00000000E+00
  0.00000000E+00  0.00000000E+00  0.00000000E+00
  0.00000000E+00  0.00000000E+00  0.00000000E+00
  0.00000000E+00  0.00000000E+00  0.00000000E+00
  0.00000000E+00  0.00000000E+00  0.00000000E+00
  0.00000000E+00  0.00000000E+00  0.00000000E+00
  0.00000000E+00  0.00000000E+00  0.00000000E+00
  0.00000000E+00  0.00000000E+00  0.00000000E+00
  0.00000000E+00  0.00000000E+00  0.00000000E+00
  0.00000000E+00  0.00000000E+00  0.00000000E+00
  0.00000000E+00  0.00000000E+00  0.00000000E+00
  0.00000000E+00  0.00000000E+00  0.00000000E+00
  0.00000000E+00  0.00000000E+00  0.00000000E+00
  0.00000000E+00  0.00000000E+00  0.00000000E+00
  0.00000000E+00  0.00000000E+00  0.00000000E+00
  0.00000000E+00  0.00000000E+00  0.00000000E+00
  0.00000000E+00  0.00000000E+00  0.00000000E+00
  0.00000000E+00  0.00000000E+00  0.00000000E+00
  0.00000000E+00  0.00000000E+00  0.00000000E+00
  0.00000000E+00  0.00000000E+00  0.00000000E+00
  0.00000000E+00  0.00000000E+00  0.00000000E+00
  0.00000000E+00  0.00000000E+00  0.00000000E+00
  0.00000000E+00  0.00000000E+00  0.00000000E+00
  0.00000000E+00  0.00000000E+00  0.00000000E+00
  0.00000000E+00  0.00000000E+00  0.00000000E+00
  0.00000000E+00  0.00000000E+00  0.00000000E+00
  0.00000000E+00  0.00000000E+00  0.00000000E+00
  0.00000000E+00  0.00000000E+00  0.00000000E+00
  0.00000000E+00  0.00000000E+00  0.00000000E+00
  0.00000000E+00  0.00000000E+00  0.00000000E+00
  0.00000000E+00  0.00000000E+00  0.00000000E+00
  0.00000000E+00  0.00000000E+00  0.00000000E+00
  0.00000000E+00  0.00000000E+00  0.00000000E+00
  0.00000000E+00  0.00000000E+00  0.00000000E+00
  0.00000000E+00  0.00000000E+00  0.00000000E+00
  0.00000000E+00  0.00000000E+00  0.00000000E+00
  0.00000000E+00  0.00000000E+00  0.00000000E+00
  0.00000000E+00  0.00000000E+00  0.00000000E+00
  0.00000000E+00  0.00000000E+00  0.00000000E+00
  0.00000000E+00  0.00000000E+00  0.00000000E+00
  0.00000000E+00  0.00000000E+00  0.00000000E+00
  0.00000000E+00  0.00000000E+00  0.00000000E+00
  0.00000000E+00  0.00000000E+00  0.00000000E+00
  0.00000000E+00  0.00000000E+00  0.00000000E+00
  0.00000000E+00  0.00000000E+00  0.00000000E+00
  0.00000000E+00  0.00000000E+00  0.00000000E+00
  0.00000000E+00  0.00000000E+00  0.00000000E+00
  0.00000000E+00  0.00000000E+00  0.00000000E+00
  0.00000000E+00  0.00000000E+00  0.00000000E+00
  0.00000000E+00  0.00000000E+00  0.00000000E+00
  0.00000000E+00  0.00000000E+00  0.00000000E+00
  0.00000000E+00  0.00000000E+00  0.00000000E+00
  0.00000000E+00  0.00000000E+00  0.00000000E+00
  0.00000000E+00  0.00000000E+00  0.00000000E+00
  0.00000000E+00  0.00000000E+00  0.00000000E+00
  0.00000000E+00  0.00000000E+00  0.00000000E+00
  0.00000000E+00  0.00000000E+00  0.00000000E+00
  0.00000000E+00  0.00000000E+00  0.00000000E+00
  0.00000000E+00  0.00000000E+00  0.00000000E+00
  0.00000000E+00  0.00000000E+00  0.00000000E+00
  0.00000000E+00  0.00000000E+00  0.00000000E+00
  0.00000000E+00  0.00000000E+00  0.00000000E+00
  0.00000000E+00  0.00000000E+00  0.00000000E+00
  0.00000000E+00  0.00000000E+00  0.00000000E+00
  0.00000000E+00  0.00000000E+00  0.00000000E+00
  0.00000000E+00  0.00000000E+00  0.00000000E+00
  0.00000000E+00  0.00000000E+00  0.00000000E+00
  0.00000000E+00  0.00000000E+00  0.00000000E+00
  0.00000000E+00  0.00000000E+00  0.00000000E+00
  0.00000000E+00  0.00000000E+00  0.00000000E+00
  0.00000000E+00  0.00000000E+00  0.00000000E+00
  0.00000000E+00  0.00000000E+00  0.00000000E+00
  0.00000000E+00  0.00000000E+00  0.00000000E+00
  0.00000000E+00  0.00000000E+00  0.00000000E+00
  0.00000000E+00  0.00000000E+00  0.00000000E+00
  0.00000000E+00  0.00000000E+00  0.00000000E+00
  0.00000000E+00  0.00000000E+00  0.00000000E+00
  0.00000000E+00  0.00000000E+00  0.00000000E+00
  0.00000000E+00  0.00000000E+00  0.00000000E+00
  0.00000000E+00  0.00000000E+00  0.00000000E+00
  0.00000000E+00  0.00000000E+00  0.00000000E+00
  0.00000000E+00  0.00000000E+00  0.00000000E+00
  0.00000000E+00  0.00000000E+00  0.00000000E+00
  0.00000000E+00  0.00000000E+00  0.00000000E+00
  0.00000000E+00  0.00000000E+00  0.00000000E+00
  0.00000000E+00  0.00000000E+00  0.00000000E+00
  0.00000000E+00  0.00000000E+00  0.00000000E+00
  0.00000000E+00  0.00000000E+00  0.00000000E+00
  0.00000000E+00  0.00000000E+00  0.00000000E+00
  0.00000000E+00  0.00000000E+00  0.00000000E+00
  0.00000000E+00  0.00000000E+00  0.00000000E+00
  0.00000000E+00  0.00000000E+00  0.00000000E+00
  0.00000000E+00  0.00000000E+00  0.00000000E+00
  0.00000000E+00  0.00000000E+00  0.00000000E+00
  0.00000000E+00  0.00000000E+00  0.00000000E+00
  0.00000000E+00  0.00000000E+00  0.00000000E+00
  0.00000000E+00  0.00000000E+00  0.00000000E+00
  0.00000000E+00  0.00000000E+00  0.00000000E+00
  0.00000000E+00  0.00000000E+00  0.00000000E+00
  0.00000000E+00  0.00000000E+00  0.00000000E+00
  0.00000000E+00  0.00000000E+00  0.00000000E+00
  0.00000000E+00  0.00000000E+00  0.00000000E+00
  0.00000000E+00  0.00000000E+00  0.00000000E+00
  0.00000000E+00  0.00000000E+00  0.00000000E+00
  0.00000000E+00  0.00000000E+00  0.00000000E+00
  0.00000000E+00  0.00000000E+00  0.00000000E+00
  0.00000000E+00  0.00000000E+00  0.00000000E+00
  0.00000000E+00  0.00000000E+00  0.00000000E+00
  0.00000000E+00  0.00000000E+00  0.00000000E+00
  0.00000000E+00  0.00000000E+00  0.00000000E+00
  0.00000000E+00  0.00000000E+00  0.00000000E+00
  0.00000000E+00  0.00000000E+00  0.00000000E+00
  0.00000000E+00  0.00000000E+00  0.00000000E+00
  0.00000000E+00  0.00000000E+00  0.00000000E+00
  0.00000000E+00  0.00000000E+00  0.00000000E+00
  0.00000000E+00  0.00000000E+00  0.00000000E+00
  0.00000000E+00  0.00000000E+00  0.00000000E+00
  0.00000000E+00  0.00000000E+00  0.00000000E+00
  0.00000000E+00  0.00000000E+00  0.00000000E+00
  0.00000000E+00  0.00000000E+00  0.00000000E+00
  0.00000000E+00  0.00000000E+00  0.00000000E+00
  0.00000000E+00  0.00000000E+00  0.00000000E+00
  0.00000000E+00  0.00000000E+00  0.00000000E+00
  0.00000000E+00  0.00000000E+00  0.00000000E+00
  0.00000000E+00  0.00000000E+00  0.00000000E+00
  0.00000000E+00  0.00000000E+00  0.00000000E+00
  0.00000000E+00  0.00000000E+00  0.00000000E+00
  0.00000000E+00  0.00000000E+00  0.00000000E+00
  0.00000000E+00  0.00000000E+00  0.00000000E+00
  0.00000000E+00  0.00000000E+00  0.00000000E+00
  0.00000000E+00  0.00000000E+00  0.00000000E+00
  0.00000000E+00  0.00000000E+00  0.00000000E+00
  0.00000000E+00  0.00000000E+00  0.00000000E+00
  0.00000000E+00  0.00000000E+00  0.00000000E+00
  0.00000000E+00  0.00000000E+00  0.00000000E+00
  0.00000000E+00  0.00000000E+00  0.00000000E+00
  0.00000000E+00  0.00000000E+00  0.00000000E+00
  0.00000000E+00  0.00000000E+00  0.00000000E+00
  0.00000000E+00  0.00000000E+00  0.00000000E+00
  0.00000000E+00  0.00000000E+00  0.00000000E+00
  0.00000000E+00  0.00000000E+00  0.00000000E+00
  0.00000000E+00  0.00000000E+00  0.00000000E+00
  0.00000000E+00  0.00000000E+00  0.00000000E+00
  0.00000000E+00  0.00000000E+00  0.00000000E+00
  0.00000000E+00  0.00000000E+00  0.00000000E+00
  0.00000000E+00  0.00000000E+00  0.00000000E+00
  0.00000000E+00  0.00000000E+00  0.00000000E+00
  0.00000000E+00  0.00000000E+00  0.00000000E+00
  0.00000000E+00  0.00000000E+00  0.00000000E+00
  0.00000000E+00  0.00000000E+00  0.00000000E+00
  0.00000000E+00  0.00000000E+00  0.00000000E+00
  0.00000000E+00  0.00000000E+00  0.00000000E+00
  0.00000000E+00  0.00000000E+00  0.00000000E+00
  0.00000000E+00  0.00000000E+00  0.00000000E+00
  0.00000000E+00  0.00000000E+00  0.00000000E+00
  0.00000000E+00  0.00000000E+00  0.00000000E+00
  0.00000000E+00  0.00000000E+00  0.00000000E+00
  0.00000000E+00  0.00000000E+00  0.00000000E+00
  0.00000000E+00  0.00000000E+00  0.00000000E+00
  0.00000000E+00  0.00000000E+00  0.00000000E+00
  0.00000000E+00  0.00000000E+00  0.00000000E+00
  0.00000000E+00  0.00000000E+00  0.00000000E+00
  0.00000000E+00  0.00000000E+00  0.00000000E+00
  0.00000000E+00  0.00000000E+00  0.00000000E+00
  0.00000000E+00  0.00000000E+00  0.00000000E+00
