Initial State for  iIn_0_110pCs_tdA_sc3k
   1.00000000000000     
    17.5612749176088023    0.0000000000000000    0.0000000000000000
     0.0000000000000000   17.5612749176088023    0.0000000000000000
     0.0000000000000000    0.0000000000000000   17.5612749176088023
   In   P 
   108   109
Direct
  0.5917603899088136  0.5917603899088136  0.5942754934831037
  0.5890937517793851  0.4109062482206150  0.4080954612624276
  0.4109062482206150  0.5890937517793851  0.4080954612624276
  0.4082396100911863  0.4082396100911863  0.5942754934831037
  0.7489200998752444  0.5841126421201982  0.4178601572125160
  0.7501607582776584  0.4178736832112687  0.5836626797038696
  0.5841126421201982  0.7489200998752444  0.4178601572125160
  0.5835368124368108  0.4164631875631892  0.7530451715043160
  0.4178736832112687  0.7501607582776584  0.5836626797038696
  0.4164631875631892  0.5835368124368108  0.7530451715043160
  0.5832908176663819  0.5832908176663819  0.2494761197761131
  0.5821263167887315  0.2498392417223415  0.5836626797038696
  0.2498392417223415  0.5821263167887315  0.5836626797038696
  0.4167091823336183  0.4167091823336183  0.2494761197761131
  0.4158873578798016  0.2510799001247557  0.4178601572125160
  0.2510799001247557  0.4158873578798016  0.4178601572125160
  0.7544283209324536  0.7544283209324536  0.5841091494734590
  0.7520083321019354  0.5842552666984838  0.7522302791361849
  0.5842552666984838  0.7520083321019354  0.7522302791361849
  0.7528010777525670  0.4164783908406018  0.2465943536073141
  0.7496754734802228  0.2503245265197772  0.4164322377976271
  0.4164783908406018  0.7528010777525670  0.2465943536073141
  0.2503245265197772  0.7496754734802228  0.4164322377976271
  0.4157447333015163  0.2479916678980645  0.7522302791361849
  0.2479916678980645  0.4157447333015163  0.7522302791361849
  0.5835216091593981  0.2471989222474330  0.2465943536073141
  0.2471989222474330  0.5835216091593981  0.2465943536073141
  0.2455716790675465  0.2455716790675465  0.5841091494734590
  0.9167183287178002  0.5836819620281942  0.5835083849302651
  0.5836819620281942  0.9167183287178002  0.5835083849302651
  0.5838571247797484  0.5838571247797484  0.9175858441655245
  0.9163734611955777  0.4167493048502158  0.4166182618097226
  0.7501168176364734  0.7501168176364734  0.2502684116844580
  0.7499875613327395  0.2500124386672605  0.7500091533806459
  0.4167493048502158  0.9163734611955777  0.4166182618097226
  0.4161428752202515  0.4161428752202515  0.9175858441655245
  0.2500124386672605  0.7499875613327395  0.7500091533806459
  0.5836166673073991  0.4163833326926010  0.0833185665127187
  0.4163833326926010  0.5836166673073991  0.0833185665127187
  0.5832506951497842  0.0836265388044223  0.4166182618097226
  0.4163180379718059  0.0832816712822000  0.5835083849302651
  0.0836265388044223  0.5832506951497842  0.4166182618097226
  0.0832816712822000  0.4163180379718059  0.5835083849302651
  0.2498831823635266  0.2498831823635266  0.2502684116844580
  0.9169074592809259  0.7498923073139629  0.4163825701803611
  0.7498923073139629  0.9169074592809259  0.4163825701803611
  0.9167876209368981  0.4166057539782634  0.7499274078513191
  0.7506121400440969  0.4167274786567796  0.9173114709701211
  0.4166057539782634  0.9167876209368981  0.7499274078513191
  0.4167274786567796  0.7506121400440969  0.9173114709701211
  0.9168194137418119  0.5836208222370288  0.2502744461163030
  0.9164564429683216  0.2501342305429307  0.5832539297963127
  0.5836208222370288  0.9168194137418119  0.2502744461163030
  0.5832725213432203  0.2493878599559029  0.9173114709701211
  0.2501342305429307  0.9164564429683216  0.5832539297963127
  0.2493878599559029  0.5832725213432203  0.9173114709701211
  0.7504008012173019  0.5838348613026511  0.0831778428257037
  0.5838348613026511  0.7504008012173019  0.0831778428257037
  0.7498657694570694  0.0835435570316784  0.5832539297963127
  0.5833942460217365  0.0832123790631017  0.7499274078513191
  0.0835435570316784  0.7498657694570694  0.5832539297963127
  0.0832123790631017  0.5833942460217365  0.7499274078513191
  0.4161651386973490  0.2495991987826980  0.0831778428257037
  0.4163791777629711  0.0831805862581880  0.2502744461163030
  0.2495991987826980  0.4161651386973490  0.0831778428257037
  0.2501076926860371  0.0830925407190739  0.4163825701803611
  0.0831805862581880  0.4163791777629711  0.2502744461163030
  0.0830925407190739  0.2501076926860371  0.4163825701803611
  0.9174162917977756  0.7504185259638705  0.7503028940703718
  0.7504185259638705  0.9174162917977756  0.7503028940703718
  0.7507833406959447  0.7507833406959447  0.9170011597656795
  0.9165561498923924  0.2497335001075218  0.2499966646154012
  0.2497335001075218  0.9165561498923924  0.2499966646154012
  0.2492166593040552  0.2492166593040552  0.9170011597656795
  0.7504121445932871  0.2495878554067129  0.0827824727677490
  0.7502664998924783  0.0834438501076078  0.2499966646154012
  0.2495878554067129  0.7504121445932871  0.0827824727677490
  0.0834438501076078  0.7502664998924783  0.2499966646154012
  0.2495814740361293  0.0825837082022244  0.7503028940703718
  0.0825837082022244  0.2495814740361293  0.7503028940703718
  0.9178683749282005  0.9178683749282005  0.5835621209817385
  0.9171289806303491  0.5837768932582930  0.9169147223588539
  0.5837768932582930  0.9171289806303491  0.9169147223588539
  0.9178297696861611  0.4163228068709425  0.0826348955695156
  0.9164250843203560  0.0835749156796441  0.4164830091395868
  0.4163228068709425  0.9178297696861611  0.0826348955695156
  0.0835749156796441  0.9164250843203560  0.4164830091395868
  0.4162231067417071  0.0828710193696509  0.9169147223588539
  0.0828710193696509  0.4162231067417071  0.9169147223588539
  0.5836771931290575  0.0821702303138388  0.0826348955695156
  0.0821702303138388  0.5836771931290575  0.0826348955695156
  0.0821316250717994  0.0821316250717994  0.5835621209817385
  0.9167618216949832  0.9167618216949832  0.2501002715150156
  0.9166639566977653  0.2497294637742628  0.9166575342827192
  0.9168518004818996  0.7503390420655246  0.0836376058062476
  0.2497294637742628  0.9166639566977653  0.9166575342827192
  0.7503390420655246  0.9168518004818996  0.0836376058062476
  0.9165819287243203  0.0834180712756798  0.7501042790871970
  0.7502705362257371  0.0833360433022346  0.9166575342827192
  0.0834180712756798  0.9165819287243203  0.7501042790871970
  0.0833360433022346  0.7502705362257371  0.9166575342827192
  0.2496609579344754  0.0831481995181005  0.0836376058062476
  0.0831481995181005  0.2496609579344754  0.0836376058062476
  0.0832381783050167  0.0832381783050167  0.2501002715150156
  0.9168639187802387  0.9168639187802387  0.9167832373326469
  0.9167421728834805  0.0832578271165195  0.0834044470275654
  0.0832578271165195  0.9167421728834805  0.0834044470275654
  0.0831360812197613  0.0831360812197613  0.9167832373326469
  0.5435643666264037  0.5435643666264037  0.4712521981937315
  0.4564356333735962  0.4564356333735962  0.4712521981937315
  0.6718698336822846  0.6718698336822846  0.5027200327757645
  0.6688092460640477  0.4992149552476605  0.6710427298044351
  0.4992149552476605  0.6688092460640477  0.6710427298044351
  0.6704834064240606  0.5000066906446216  0.3292438613371130
  0.6663569291286729  0.3336430708713271  0.5011972589972562
  0.5000066906446216  0.6704834064240606  0.3292438613371130
  0.5007850447523396  0.3311907539359524  0.6710427298044351
  0.3336430708713271  0.6663569291286729  0.5011972589972562
  0.3311907539359524  0.5007850447523396  0.6710427298044351
  0.4999933093553784  0.3295165935759394  0.3292438613371130
  0.3295165935759394  0.4999933093553784  0.3292438613371130
  0.3281301663177155  0.3281301663177155  0.5027200327757645
  0.8332437963876201  0.5004852127591390  0.4999997239817073
  0.5004852127591390  0.8332437963876201  0.4999997239817073
  0.5000000000000000  0.5000000000000000  0.8352603651595977
  0.5000000000000000  0.5000000000000000  0.1661974646591301
  0.4995147872408610  0.1667562036123799  0.4999997239817073
  0.1667562036123799  0.4995147872408610  0.4999997239817073
  0.8341137059690761  0.6673346856739911  0.6672559035163355
  0.6673346856739911  0.8341137059690761  0.6672559035163355
  0.6672392800400229  0.6672392800400229  0.8342990910817647
  0.8330499708769100  0.6664534489968026  0.3336345009525953
  0.6664534489968026  0.8330499708769100  0.3336345009525953
  0.8330745038990425  0.3335190551526107  0.6666142263377232
  0.6673276302324394  0.3326723697675606  0.8346885019154459
  0.3335190551526107  0.8330745038990425  0.6666142263377232
  0.3326723697675606  0.6673276302324394  0.8346885019154459
  0.8333373093725495  0.3333792591509445  0.3329710431706235
  0.6669310377698200  0.6669310377698200  0.1665575491160573
  0.6664809448473893  0.1669254961009574  0.6666142263377232
  0.3333792591509445  0.8333373093725495  0.3329710431706235
  0.3327607199599770  0.3327607199599770  0.8342990910817647
  0.1669254961009574  0.6664809448473893  0.6666142263377232
  0.6672993059150335  0.3327006940849665  0.1657980440864627
  0.6666207408490556  0.1666626906274506  0.3329710431706235
  0.3327006940849665  0.6672993059150335  0.1657980440864627
  0.1666626906274506  0.6666207408490556  0.3329710431706235
  0.3326653143260090  0.1658862940309239  0.6672559035163355
  0.1658862940309239  0.3326653143260090  0.6672559035163355
  0.3330689622301800  0.3330689622301800  0.1665575491160573
  0.3335465510031973  0.1669500291230971  0.3336345009525953
  0.1669500291230971  0.3335465510031973  0.3336345009525953
  0.8358795517839041  0.8358795517839041  0.4991662759968248
  0.8344571663899782  0.4998106128626641  0.8343146969330277
  0.4998106128626641  0.8344571663899782  0.8343146969330277
  0.8353837555125093  0.5006560945845693  0.1648181819996553
  0.8330157663389827  0.1669842336610173  0.4998113766020489
  0.5006560945845693  0.8353837555125093  0.1648181819996553
  0.5001893871373359  0.1655428336100217  0.8343146969330277
  0.1669842336610173  0.8330157663389827  0.4998113766020489
  0.1655428336100217  0.5001893871373359  0.8343146969330277
  0.4993439054154307  0.1646162444874907  0.1648181819996553
  0.1646162444874907  0.4993439054154307  0.1648181819996553
  0.1641204482160958  0.1641204482160958  0.4991662759968248
  0.0001805529674757  0.6666137412502201  0.4999147636171870
  0.0000000000000000  0.5000000000000000  0.6665832229633435
  0.6666137412502201  0.0001805529674757  0.4999147636171870
  0.5000000000000000  0.0000000000000000  0.6665832229633435
  0.6670589749585907  0.5000491487644444  0.0003476045478133
  0.5000491487644444  0.6670589749585907  0.0003476045478133
  0.0000000000000000  0.5000000000000000  0.3334906458409271
  0.9998194470325243  0.3333862587497798  0.4999147636171870
  0.5000000000000000  0.0000000000000000  0.3334906458409271
  0.3333862587497798  0.9998194470325243  0.4999147636171870
  0.4999508512355556  0.3329410250414093  0.0003476045478133
  0.3329410250414093  0.4999508512355556  0.0003476045478133
  0.8337780121119809  0.8337780121119809  0.8332128600949937
  0.8334266436101410  0.8334266436101410  0.1669201407256537
  0.8333136667122713  0.1666863332877287  0.8332823346306888
  0.1666863332877287  0.8333136667122713  0.8332823346306888
  0.8334094915622504  0.1665905084377497  0.1665337515297121
  0.1665905084377497  0.8334094915622504  0.1665337515297121
  0.1662219878880191  0.1662219878880191  0.8332128600949937
  0.1665733563898590  0.1665733563898590  0.1669201407256537
  0.0004102954713907  0.8334867067759407  0.6665322220627136
  0.0003372534981157  0.6668916970985700  0.8334158883712065
  0.8334867067759407  0.0004102954713907  0.6665322220627136
  0.8338045951512280  0.6671523836013340  0.0000337185654276
  0.6668916970985700  0.0003372534981157  0.8334158883712065
  0.6671523836013340  0.8338045951512280  0.0000337185654276
  0.0001199550535736  0.8333584416706749  0.3331705652229046
  0.8333584416706749  0.0001199550535736  0.3331705652229046
  0.9996627465018844  0.3331083029014298  0.8334158883712065
  0.8338683427480600  0.3330921711162979  0.0000773390725026
  0.0000027371555589  0.6669570694945651  0.1668940776409135
  0.3331083029014298  0.9996627465018844  0.8334158883712065
  0.3330921711162979  0.8338683427480600  0.0000773390725026
  0.6669570694945651  0.0000027371555589  0.1668940776409135
  0.9995897045286093  0.1665132932240595  0.6665322220627136
  0.6669078288837020  0.1661316572519401  0.0000773390725026
 -0.0000027371555590  0.3330429305054348  0.1668940776409135
  0.1665132932240595  0.9995897045286093  0.6665322220627136
  0.9998800449464265  0.1666415583293252  0.3331705652229046
  0.1661316572519401  0.6669078288837020  0.0000773390725026
  0.3330429305054348 -0.0000027371555590  0.1668940776409135
  0.1666415583293252  0.9998800449464265  0.3331705652229046
  0.3328476163986660  0.1661954048487721  0.0000337185654276
  0.1661954048487721  0.3328476163986660  0.0000337185654276
  0.0000000000000000  0.0000000000000000  0.4992535472534944
  0.0000000000000000  0.5000000000000000  0.9994109959762636
  0.5000000000000000  0.0000000000000000  0.9994109959762636
  0.0000000000000000  0.0000000000000000  0.8332304131710675
  0.0000468137152758  0.8334801558531277  0.0000551376185433
  0.8334801558531277  0.0000468137152758  0.0000551376185433
  0.0000000000000000  0.0000000000000000  0.1667096797055841
  0.9999531862847241  0.1665198441468723  0.0000551376185433
  0.1665198441468723  0.9999531862847241  0.0000551376185433
 
  0.00000000E+00  0.00000000E+00  0.00000000E+00
  0.00000000E+00  0.00000000E+00  0.00000000E+00
  0.00000000E+00  0.00000000E+00  0.00000000E+00
  0.00000000E+00  0.00000000E+00  0.00000000E+00
  0.00000000E+00  0.00000000E+00  0.00000000E+00
  0.00000000E+00  0.00000000E+00  0.00000000E+00
  0.00000000E+00  0.00000000E+00  0.00000000E+00
  0.00000000E+00  0.00000000E+00  0.00000000E+00
  0.00000000E+00  0.00000000E+00  0.00000000E+00
  0.00000000E+00  0.00000000E+00  0.00000000E+00
  0.00000000E+00  0.00000000E+00  0.00000000E+00
  0.00000000E+00  0.00000000E+00  0.00000000E+00
  0.00000000E+00  0.00000000E+00  0.00000000E+00
  0.00000000E+00  0.00000000E+00  0.00000000E+00
  0.00000000E+00  0.00000000E+00  0.00000000E+00
  0.00000000E+00  0.00000000E+00  0.00000000E+00
  0.00000000E+00  0.00000000E+00  0.00000000E+00
  0.00000000E+00  0.00000000E+00  0.00000000E+00
  0.00000000E+00  0.00000000E+00  0.00000000E+00
  0.00000000E+00  0.00000000E+00  0.00000000E+00
  0.00000000E+00  0.00000000E+00  0.00000000E+00
  0.00000000E+00  0.00000000E+00  0.00000000E+00
  0.00000000E+00  0.00000000E+00  0.00000000E+00
  0.00000000E+00  0.00000000E+00  0.00000000E+00
  0.00000000E+00  0.00000000E+00  0.00000000E+00
  0.00000000E+00  0.00000000E+00  0.00000000E+00
  0.00000000E+00  0.00000000E+00  0.00000000E+00
  0.00000000E+00  0.00000000E+00  0.00000000E+00
  0.00000000E+00  0.00000000E+00  0.00000000E+00
  0.00000000E+00  0.00000000E+00  0.00000000E+00
  0.00000000E+00  0.00000000E+00  0.00000000E+00
  0.00000000E+00  0.00000000E+00  0.00000000E+00
  0.00000000E+00  0.00000000E+00  0.00000000E+00
  0.00000000E+00  0.00000000E+00  0.00000000E+00
  0.00000000E+00  0.00000000E+00  0.00000000E+00
  0.00000000E+00  0.00000000E+00  0.00000000E+00
  0.00000000E+00  0.00000000E+00  0.00000000E+00
  0.00000000E+00  0.00000000E+00  0.00000000E+00
  0.00000000E+00  0.00000000E+00  0.00000000E+00
  0.00000000E+00  0.00000000E+00  0.00000000E+00
  0.00000000E+00  0.00000000E+00  0.00000000E+00
  0.00000000E+00  0.00000000E+00  0.00000000E+00
  0.00000000E+00  0.00000000E+00  0.00000000E+00
  0.00000000E+00  0.00000000E+00  0.00000000E+00
  0.00000000E+00  0.00000000E+00  0.00000000E+00
  0.00000000E+00  0.00000000E+00  0.00000000E+00
  0.00000000E+00  0.00000000E+00  0.00000000E+00
  0.00000000E+00  0.00000000E+00  0.00000000E+00
  0.00000000E+00  0.00000000E+00  0.00000000E+00
  0.00000000E+00  0.00000000E+00  0.00000000E+00
  0.00000000E+00  0.00000000E+00  0.00000000E+00
  0.00000000E+00  0.00000000E+00  0.00000000E+00
  0.00000000E+00  0.00000000E+00  0.00000000E+00
  0.00000000E+00  0.00000000E+00  0.00000000E+00
  0.00000000E+00  0.00000000E+00  0.00000000E+00
  0.00000000E+00  0.00000000E+00  0.00000000E+00
  0.00000000E+00  0.00000000E+00  0.00000000E+00
  0.00000000E+00  0.00000000E+00  0.00000000E+00
  0.00000000E+00  0.00000000E+00  0.00000000E+00
  0.00000000E+00  0.00000000E+00  0.00000000E+00
  0.00000000E+00  0.00000000E+00  0.00000000E+00
  0.00000000E+00  0.00000000E+00  0.00000000E+00
  0.00000000E+00  0.00000000E+00  0.00000000E+00
  0.00000000E+00  0.00000000E+00  0.00000000E+00
  0.00000000E+00  0.00000000E+00  0.00000000E+00
  0.00000000E+00  0.00000000E+00  0.00000000E+00
  0.00000000E+00  0.00000000E+00  0.00000000E+00
  0.00000000E+00  0.00000000E+00  0.00000000E+00
  0.00000000E+00  0.00000000E+00  0.00000000E+00
  0.00000000E+00  0.00000000E+00  0.00000000E+00
  0.00000000E+00  0.00000000E+00  0.00000000E+00
  0.00000000E+00  0.00000000E+00  0.00000000E+00
  0.00000000E+00  0.00000000E+00  0.00000000E+00
  0.00000000E+00  0.00000000E+00  0.00000000E+00
  0.00000000E+00  0.00000000E+00  0.00000000E+00
  0.00000000E+00  0.00000000E+00  0.00000000E+00
  0.00000000E+00  0.00000000E+00  0.00000000E+00
  0.00000000E+00  0.00000000E+00  0.00000000E+00
  0.00000000E+00  0.00000000E+00  0.00000000E+00
  0.00000000E+00  0.00000000E+00  0.00000000E+00
  0.00000000E+00  0.00000000E+00  0.00000000E+00
  0.00000000E+00  0.00000000E+00  0.00000000E+00
  0.00000000E+00  0.00000000E+00  0.00000000E+00
  0.00000000E+00  0.00000000E+00  0.00000000E+00
  0.00000000E+00  0.00000000E+00  0.00000000E+00
  0.00000000E+00  0.00000000E+00  0.00000000E+00
  0.00000000E+00  0.00000000E+00  0.00000000E+00
  0.00000000E+00  0.00000000E+00  0.00000000E+00
  0.00000000E+00  0.00000000E+00  0.00000000E+00
  0.00000000E+00  0.00000000E+00  0.00000000E+00
  0.00000000E+00  0.00000000E+00  0.00000000E+00
  0.00000000E+00  0.00000000E+00  0.00000000E+00
  0.00000000E+00  0.00000000E+00  0.00000000E+00
  0.00000000E+00  0.00000000E+00  0.00000000E+00
  0.00000000E+00  0.00000000E+00  0.00000000E+00
  0.00000000E+00  0.00000000E+00  0.00000000E+00
  0.00000000E+00  0.00000000E+00  0.00000000E+00
  0.00000000E+00  0.00000000E+00  0.00000000E+00
  0.00000000E+00  0.00000000E+00  0.00000000E+00
  0.00000000E+00  0.00000000E+00  0.00000000E+00
  0.00000000E+00  0.00000000E+00  0.00000000E+00
  0.00000000E+00  0.00000000E+00  0.00000000E+00
  0.00000000E+00  0.00000000E+00  0.00000000E+00
  0.00000000E+00  0.00000000E+00  0.00000000E+00
  0.00000000E+00  0.00000000E+00  0.00000000E+00
  0.00000000E+00  0.00000000E+00  0.00000000E+00
  0.00000000E+00  0.00000000E+00  0.00000000E+00
  0.00000000E+00  0.00000000E+00  0.00000000E+00
  0.00000000E+00  0.00000000E+00  0.00000000E+00
  0.00000000E+00  0.00000000E+00  0.00000000E+00
  0.00000000E+00  0.00000000E+00  0.00000000E+00
  0.00000000E+00  0.00000000E+00  0.00000000E+00
  0.00000000E+00  0.00000000E+00  0.00000000E+00
  0.00000000E+00  0.00000000E+00  0.00000000E+00
  0.00000000E+00  0.00000000E+00  0.00000000E+00
  0.00000000E+00  0.00000000E+00  0.00000000E+00
  0.00000000E+00  0.00000000E+00  0.00000000E+00
  0.00000000E+00  0.00000000E+00  0.00000000E+00
  0.00000000E+00  0.00000000E+00  0.00000000E+00
  0.00000000E+00  0.00000000E+00  0.00000000E+00
  0.00000000E+00  0.00000000E+00  0.00000000E+00
  0.00000000E+00  0.00000000E+00  0.00000000E+00
  0.00000000E+00  0.00000000E+00  0.00000000E+00
  0.00000000E+00  0.00000000E+00  0.00000000E+00
  0.00000000E+00  0.00000000E+00  0.00000000E+00
  0.00000000E+00  0.00000000E+00  0.00000000E+00
  0.00000000E+00  0.00000000E+00  0.00000000E+00
  0.00000000E+00  0.00000000E+00  0.00000000E+00
  0.00000000E+00  0.00000000E+00  0.00000000E+00
  0.00000000E+00  0.00000000E+00  0.00000000E+00
  0.00000000E+00  0.00000000E+00  0.00000000E+00
  0.00000000E+00  0.00000000E+00  0.00000000E+00
  0.00000000E+00  0.00000000E+00  0.00000000E+00
  0.00000000E+00  0.00000000E+00  0.00000000E+00
  0.00000000E+00  0.00000000E+00  0.00000000E+00
  0.00000000E+00  0.00000000E+00  0.00000000E+00
  0.00000000E+00  0.00000000E+00  0.00000000E+00
  0.00000000E+00  0.00000000E+00  0.00000000E+00
  0.00000000E+00  0.00000000E+00  0.00000000E+00
  0.00000000E+00  0.00000000E+00  0.00000000E+00
  0.00000000E+00  0.00000000E+00  0.00000000E+00
  0.00000000E+00  0.00000000E+00  0.00000000E+00
  0.00000000E+00  0.00000000E+00  0.00000000E+00
  0.00000000E+00  0.00000000E+00  0.00000000E+00
  0.00000000E+00  0.00000000E+00  0.00000000E+00
  0.00000000E+00  0.00000000E+00  0.00000000E+00
  0.00000000E+00  0.00000000E+00  0.00000000E+00
  0.00000000E+00  0.00000000E+00  0.00000000E+00
  0.00000000E+00  0.00000000E+00  0.00000000E+00
  0.00000000E+00  0.00000000E+00  0.00000000E+00
  0.00000000E+00  0.00000000E+00  0.00000000E+00
  0.00000000E+00  0.00000000E+00  0.00000000E+00
  0.00000000E+00  0.00000000E+00  0.00000000E+00
  0.00000000E+00  0.00000000E+00  0.00000000E+00
  0.00000000E+00  0.00000000E+00  0.00000000E+00
  0.00000000E+00  0.00000000E+00  0.00000000E+00
  0.00000000E+00  0.00000000E+00  0.00000000E+00
  0.00000000E+00  0.00000000E+00  0.00000000E+00
  0.00000000E+00  0.00000000E+00  0.00000000E+00
  0.00000000E+00  0.00000000E+00  0.00000000E+00
  0.00000000E+00  0.00000000E+00  0.00000000E+00
  0.00000000E+00  0.00000000E+00  0.00000000E+00
  0.00000000E+00  0.00000000E+00  0.00000000E+00
  0.00000000E+00  0.00000000E+00  0.00000000E+00
  0.00000000E+00  0.00000000E+00  0.00000000E+00
  0.00000000E+00  0.00000000E+00  0.00000000E+00
  0.00000000E+00  0.00000000E+00  0.00000000E+00
  0.00000000E+00  0.00000000E+00  0.00000000E+00
  0.00000000E+00  0.00000000E+00  0.00000000E+00
  0.00000000E+00  0.00000000E+00  0.00000000E+00
  0.00000000E+00  0.00000000E+00  0.00000000E+00
  0.00000000E+00  0.00000000E+00  0.00000000E+00
  0.00000000E+00  0.00000000E+00  0.00000000E+00
  0.00000000E+00  0.00000000E+00  0.00000000E+00
  0.00000000E+00  0.00000000E+00  0.00000000E+00
  0.00000000E+00  0.00000000E+00  0.00000000E+00
  0.00000000E+00  0.00000000E+00  0.00000000E+00
  0.00000000E+00  0.00000000E+00  0.00000000E+00
  0.00000000E+00  0.00000000E+00  0.00000000E+00
  0.00000000E+00  0.00000000E+00  0.00000000E+00
  0.00000000E+00  0.00000000E+00  0.00000000E+00
  0.00000000E+00  0.00000000E+00  0.00000000E+00
  0.00000000E+00  0.00000000E+00  0.00000000E+00
  0.00000000E+00  0.00000000E+00  0.00000000E+00
  0.00000000E+00  0.00000000E+00  0.00000000E+00
  0.00000000E+00  0.00000000E+00  0.00000000E+00
  0.00000000E+00  0.00000000E+00  0.00000000E+00
  0.00000000E+00  0.00000000E+00  0.00000000E+00
  0.00000000E+00  0.00000000E+00  0.00000000E+00
  0.00000000E+00  0.00000000E+00  0.00000000E+00
  0.00000000E+00  0.00000000E+00  0.00000000E+00
  0.00000000E+00  0.00000000E+00  0.00000000E+00
  0.00000000E+00  0.00000000E+00  0.00000000E+00
  0.00000000E+00  0.00000000E+00  0.00000000E+00
  0.00000000E+00  0.00000000E+00  0.00000000E+00
  0.00000000E+00  0.00000000E+00  0.00000000E+00
  0.00000000E+00  0.00000000E+00  0.00000000E+00
  0.00000000E+00  0.00000000E+00  0.00000000E+00
  0.00000000E+00  0.00000000E+00  0.00000000E+00
  0.00000000E+00  0.00000000E+00  0.00000000E+00
  0.00000000E+00  0.00000000E+00  0.00000000E+00
  0.00000000E+00  0.00000000E+00  0.00000000E+00
  0.00000000E+00  0.00000000E+00  0.00000000E+00
  0.00000000E+00  0.00000000E+00  0.00000000E+00
  0.00000000E+00  0.00000000E+00  0.00000000E+00
  0.00000000E+00  0.00000000E+00  0.00000000E+00
  0.00000000E+00  0.00000000E+00  0.00000000E+00
  0.00000000E+00  0.00000000E+00  0.00000000E+00
  0.00000000E+00  0.00000000E+00  0.00000000E+00
  0.00000000E+00  0.00000000E+00  0.00000000E+00
  0.00000000E+00  0.00000000E+00  0.00000000E+00
  0.00000000E+00  0.00000000E+00  0.00000000E+00
  0.00000000E+00  0.00000000E+00  0.00000000E+00
  0.00000000E+00  0.00000000E+00  0.00000000E+00
  0.00000000E+00  0.00000000E+00  0.00000000E+00
  0.00000000E+00  0.00000000E+00  0.00000000E+00
  0.00000000E+00  0.00000000E+00  0.00000000E+00
