# This file was generated by FitSNAP.
# Hash: 2f506cc32fa23a344fff87a8be07c963

pair_style hybrid/overlay zbl 4.0 4.8 snap
pair_coeff * * zbl 73 73
pair_coeff * * snap Ta_pot.snapcoeff Ta_pot.snapparam Ta