pair_style hybrid/overlay zbl 4.0 4.8 mliap model mliappy ../FitTorch_Pytorch.pt descriptor sna ../WBe_pot.mliap.descriptor
pair_coeff 1 1 zbl 74 74
pair_coeff 1 2 zbl 74 4
pair_coeff 2 2 zbl 4 4
pair_coeff * * mliap W Be
