# This file was generated by FitSNAP.
# Hash: bc6d60c150fb0d506660dc8555d5381a

pair_style hybrid/overlay zbl 4.0 4.8 snap
pair_coeff * * zbl 73 73
pair_coeff * * snap Ta_pot.snapcoeff Ta_pot.snapparam Ta