# This file was generated by FitSNAP.
# Hash: aa1ab83fab44a1d6f2a4a9a518b9d0e2

pair_style hybrid/overlay zbl 4.0 4.8 snap
pair_coeff * * zbl 73 73
pair_coeff * * snap Ta-SNAP_pot.snapcoeff Ta-SNAP_pot.snapparam Ta