Initial State for  iIn_0_110pCs_tdA_sc3k
   1.00000000000000     
    17.5612749176088023    0.0000000000000000    0.0000000000000000
     0.0000000000000000   17.5612749176088023    0.0000000000000000
     0.0000000000000000    0.0000000000000000   17.5612749176088023
   In   P 
   108   109
Direct
0.5912372266	0.5912372266	0.5944452864
0.589516668	0.410483332	0.4079996942
0.410483332	0.589516668	0.4079996942
0.4087627734	0.4087627734	0.5944452864
0.7488200245	0.5841492844	0.4179497735
0.7501950726	0.4180041324	0.5836515674
0.5841492844	0.7488200245	0.4179497735
0.5835702955	0.4164297045	0.7531655197
0.4180041324	0.7501950726	0.5836515674
0.4164297045	0.5835702955	0.7531655197
0.5832215731	0.5832215731	0.2494557935
0.5819958676	0.2498049274	0.5836515674
0.2498049274	0.5819958676	0.5836515674
0.4167784269	0.4167784269	0.2494557935
0.4158507156	0.2511799755	0.4179497735
0.2511799755	0.4158507156	0.4179497735
0.754442283	0.754442283	0.583958215
0.7520826705	0.5841981065	0.7523210298
0.5841981065	0.7520826705	0.7523210298
0.7528356281	0.416565381	0.2465132424
0.749712578	0.250287422	0.416465632
0.416565381	0.7528356281	0.2465132424
0.250287422	0.749712578	0.416465632
0.4158018935	0.2479173295	0.7523210298
0.2479173295	0.4158018935	0.7523210298
0.583434619	0.2471643719	0.2465132424
0.2471643719	0.583434619	0.2465132424
0.245557717	0.245557717	0.583958215
0.9167297201	0.5837014509	0.5834982952
0.5837014509	0.9167297201	0.5834982952
0.5839015245	0.5839015245	0.9176236995
0.9163567727	0.4167501197	0.4165806947
0.750093996	0.750093996	0.2502904785
0.7499702576	0.2500297424	0.7499945211
0.4167501197	0.9163567727	0.4165806947
0.4160984755	0.4160984755	0.9176236995
0.2500297424	0.7499702576	0.7499945211
0.5836422096	0.4163577904	0.0832805501
0.4163577904	0.5836422096	0.0832805501
0.5832498803	0.0836432273	0.4165806947
0.4162985491	0.0832702799	0.5834982952
0.0836432273	0.5832498803	0.4165806947
0.0832702799	0.4162985491	0.5834982952
0.249906004	0.249906004	0.2502904785
0.9168981581	0.7498877624	0.4163541713
0.7498877624	0.9168981581	0.4163541713
0.9168054549	0.4166079742	0.7499137591
0.7506642995	0.4167247078	0.9173359106
0.4166079742	0.9168054549	0.7499137591
0.4167247078	0.7506642995	0.9173359106
0.9168056634	0.5836223868	0.2502915624
0.9164507029	0.2501606812	0.5832303971
0.5836223868	0.9168056634	0.2502915624
0.5832752922	0.2493357005	0.9173359106
0.2501606812	0.9164507029	0.5832303971
0.2493357005	0.5832752922	0.9173359106
0.7504129401	0.5838738002	0.0831826073
0.5838738002	0.7504129401	0.0831826073
0.7498393188	0.0835492971	0.5832303971
0.5833920258	0.0831945451	0.7499137591
0.0835492971	0.7498393188	0.5832303971
0.0831945451	0.5833920258	0.7499137591
0.4161261998	0.2495870599	0.0831826073
0.4163776132	0.0831943366	0.2502915624
0.2495870599	0.4161261998	0.0831826073
0.2501122376	0.0831018419	0.4163541713
0.0831943366	0.4163776132	0.2502915624
0.0831018419	0.2501122376	0.4163541713
0.9174751112	0.75040935	0.7502733291
0.75040935	0.9174751112	0.7502733291
0.7508483977	0.7508483977	0.9170340875
0.9165673395	0.2497131241	0.2499868826
0.2497131241	0.9165673395	0.2499868826
0.2491516023	0.2491516023	0.9170340875
0.7504356198	0.2495643802	0.0826944115
0.7502868759	0.0834326605	0.2499868826
0.2495643802	0.7504356198	0.0826944115
0.0834326605	0.7502868759	0.2499868826
0.24959065	0.0825248888	0.7502733291
0.0825248888	0.24959065	0.7502733291
0.9179037399	0.9179037399	0.5834506017
0.9171596003	0.5837686484	0.9169373519
0.5837686484	0.9171596003	0.9169373519
0.9178718651	0.4163365005	0.0826061887
0.916417654	0.083582346	0.4164503476
0.4163365005	0.9178718651	0.0826061887
0.083582346	0.916417654	0.4164503476
0.4162313516	0.0828403997	0.9169373519
0.0828403997	0.4162313516	0.9169373519
0.5836634995	0.0821281349	0.0826061887
0.0821281349	0.5836634995	0.0826061887
0.0820962601	0.0820962601	0.5834506017
0.9167589885	0.9167589885	0.2501296944
0.9166584408	0.2497351206	0.9166253829
0.9168519843	0.7503491501	0.0836774281
0.2497351206	0.9166584408	0.9166253829
0.7503491501	0.9168519843	0.0836774281
0.9165546502	0.0834453498	0.7500535704
0.7502648794	0.0833415592	0.9166253829
0.0834453498	0.9165546502	0.7500535704
0.0833415592	0.7502648794	0.9166253829
0.2496508499	0.0831480157	0.0836774281
0.0831480157	0.2496508499	0.0836774281
0.0832410115	0.0832410115	0.2501296944
0.91687376	0.91687376	0.9167649404
0.91675174	0.08324826	0.0834064974
0.08324826	0.91675174	0.0834064974
0.08312624	0.08312624	0.9167649404
0.5436866218	0.5436866218	0.4711907164
0.4563133782	0.4563133782	0.4711907164
0.6717937139	0.6717937139	0.5030834262
0.6688961986	0.4991169996	0.6712476114
0.4991169996	0.6688961986	0.6712476114
0.6705189142	0.4999507815	0.3291675675
0.6664663203	0.3335336797	0.5014118491
0.4999507815	0.6705189142	0.3291675675
0.5008830004	0.3311038014	0.6712476114
0.3335336797	0.6664663203	0.5014118491
0.3311038014	0.5008830004	0.6712476114
0.5000492185	0.3294810858	0.3291675675
0.3294810858	0.5000492185	0.3291675675
0.3282062861	0.3282062861	0.5030834262
0.833232343	0.5005107611	0.4999558592
0.5005107611	0.833232343	0.4999558592
0.5	0.5	0.8353206105
0.5	0.5	0.1661031581
0.4994892389	0.166767657	0.4999558592
0.166767657	0.4994892389	0.4999558592
0.8341146978	0.6673515467	0.6672491586
0.6673515467	0.8341146978	0.6672491586
0.6672871921	0.6672871921	0.8343052561
0.8329902943	0.666401309	0.3336629899
0.666401309	0.8329902943	0.3336629899
0.8330503977	0.3335540381	0.6665841212
0.6673579537	0.3326420463	0.8347652164
0.3335540381	0.8330503977	0.6665841212
0.3326420463	0.6673579537	0.8347652164
0.8333133313	0.3333791084	0.3329515884
0.6668978939	0.6668978939	0.1665861804
0.6664459619	0.1669496023	0.6665841212
0.3333791084	0.8333133313	0.3329515884
0.3327128079	0.3327128079	0.8343052561
0.1669496023	0.6664459619	0.6665841212
0.6673287816	0.3326712184	0.165721644
0.6666208916	0.1666866687	0.3329515884
0.3326712184	0.6673287816	0.165721644
0.1666866687	0.6666208916	0.3329515884
0.3326484533	0.1658853022	0.6672491586
0.1658853022	0.3326484533	0.6672491586
0.3331021061	0.3331021061	0.1665861804
0.333598691	0.1670097057	0.3336629899
0.1670097057	0.333598691	0.3336629899
0.8359361224	0.8359361224	0.4991594151
0.8345304778	0.4997989007	0.8343541944
0.4997989007	0.8345304778	0.8343541944
0.8354526095	0.5006710134	0.164738156
0.8330283425	0.1669716575	0.4998162748
0.5006710134	0.8354526095	0.164738156
0.5002010993	0.1654695222	0.8343541944
0.1669716575	0.8330283425	0.4998162748
0.1654695222	0.5002010993	0.8343541944
0.4993289866	0.1645473905	0.164738156
0.1645473905	0.4993289866	0.164738156
0.1640638776	0.1640638776	0.4991594151
1.0001988681	0.6666004656	0.4998794787
1	0.5	0.6665385598
0.6666004656	1.0001988681	0.4998794787
0.5	1	0.6665385598
0.6671002533	0.50006683	1.0003343815
0.50006683	0.6671002533	1.0003343815
1	0.5	0.333487734
0.9998011319	0.3333995344	0.4998794787
0.5	1	0.333487734
0.3333995344	0.9998011319	0.4998794787
0.49993317	0.3328997467	1.0003343815
0.3328997467	0.49993317	1.0003343815
0.8338003649	0.8338003649	0.8331652884
0.8334244808	0.8334244808	0.166952616
0.8333061508	0.1666938492	0.8332560874
0.1666938492	0.8333061508	0.8332560874
0.8334068744	0.1665931256	0.1665149945
0.1665931256	0.8334068744	0.1665149945
0.1661996351	0.1661996351	0.8331652884
0.1665755192	0.1665755192	0.166952616
1.0004242184	0.8334911299	0.6664831133
1.0003425606	0.6668857662	0.8334101869
0.8334911299	1.0004242184	0.6664831133
0.8338261298	0.6671676617	1.0000406825
0.6668857662	1.0003425606	0.8334101869
0.6671676617	0.8338261298	1.0000406825
1.000123688	0.8333504414	0.3331679438
0.8333504414	1.000123688	0.3331679438
0.9996574394	0.3331142338	0.8334101869
0.8339149406	0.3330909844	1.0000633063
0.9999926589	0.6669393028	0.1669205068
0.3331142338	0.9996574394	0.8334101869
0.3330909844	0.8339149406	1.0000633063
0.6669393028	0.9999926589	0.1669205068
0.9995757816	0.1665088701	0.6664831133
0.6669090156	0.1660850594	1.0000633063
1.0000073411	0.3330606972	0.1669205068
0.1665088701	0.9995757816	0.6664831133
0.999876312	0.1666495586	0.3331679438
0.1660850594	0.6669090156	1.0000633063
0.3330606972	1.0000073411	0.1669205068
0.1666495586	0.999876312	0.3331679438
0.3328323383	0.1661738702	1.0000406825
0.1661738702	0.3328323383	1.0000406825
1	1	0.4991725771
1	0.5	0.9993952779
0.5	1	0.9993952779
1	1	0.833180186
1.0000474818	0.8334682816	1.0000496224
0.8334682816	1.0000474818	1.0000496224
1	1	0.1667375286
0.9999525182	0.1665317184	1.0000496224
0.1665317184	0.9999525182	1.0000496224
